POSCAR file written by Ovito 3.15.2
1
271.622958783 0.0 0.0
0.0 15.3653148865 0.0
0.0 0.0 10.8649183513
Sr Ti O 
800 800 2400 
Direct
0.02262088 0.4994285831 0.244335496
0.012453551 0.2525940713 0.4932770815
0.0225953667 0.2498625945 0.745030469
0.02262088 0.4994285831 0.7443355719
0.0024298401 0.252534847 0.74262364
0.012453551 0.2525940713 0.9932753165
0.0125881861 0.5031707778 0.4959305759
0.0225953667 0.2498625945 0.2450303931
0.0125881861 0.5031707778 0.9959260498
0.0024298401 0.252534847 0.2426235642
0.0026234541 0.5014734485 0.2392963417
0.0026234541 0.5014734485 0.7392964176
0.0524770823 0.2488421143 0.9984847436
0.0524770823 0.2488421143 0.4984874289
0.0324677281 0.4995379203 0.500885054
0.0425876385 -0.0022548224 0.2480980646
0.0324677281 0.4995379203 1.0008869706
0.0425876385 -0.0022548224 0.7480981404
0.0525157388 -3.2707151003e-04 0.4965785329
0.0525157388 -3.2707151003e-04 0.9965795291
0.0325601356 0.2460383969 0.5020622372
0.0425975787 0.2482309976 0.749463084
0.0325601356 0.2460383969 1.0020650743
0.0425975787 0.2482309976 0.2494630081
0.0724212727 0.5001080355 0.5029936754
0.0724212727 0.5001080355 1.0029946717
0.0723932927 0.2489026402 0.4994943394
0.0624659287 0.2470491149 0.7489209722
0.0723932927 0.2489026402 0.9994971765
0.0624659287 0.2470491149 0.2489208963
0.0624136503 8.1452566058e-04 0.7496756949
0.0624136503 8.1459074223e-04 0.249675619
0.0924479303 0.2530769771 0.5003318975
0.0924475622 0.5021965056 0.5042095152
0.1024231548 0.2497506541 0.7575064026
0.0824907455 0.2484125754 0.7523475971
0.0924479303 0.2530776279 1.0003347345
0.0924475622 0.5021965056 1.0042095911
0.1024231548 0.2497506541 0.2575063267
0.0824907455 0.2484125754 0.2523475213
0.1024548164 0.5001887368 0.2536047787
0.1024548164 0.5001887368 0.7536048546
0.0825253523 0.5024542289 0.2555247195
0.0825253523 0.5024542289 0.7555247954
0.1125485876 0.249311353 0.5067866169
0.1222856143 0.251272263 0.7560788723
0.1125485876 0.249311353 0.0067868172
0.1222856143 0.251272263 0.2560787964
0.1223979023 0.4984393421 0.2586282864
0.1223979023 0.4984393421 0.7586283622
0.1124153146 -9.0616800533e-04 0.5030240484
0.1124153146 -9.0623308698e-04 0.0030242486
0.1524984506 0.2509514105 0.512276764
0.1325251758 0.2504157885 0.5105169717
0.1426325688 0.2525882139 0.7616923521
0.1426325688 0.2525882139 0.2616922762
0.1524984506 0.2509514105 0.0122765961
0.1325251758 0.2504157885 0.0105170799
0.1324611164 0.5033217673 0.5116306478
0.1324611164 0.5033217673 0.0116310321
0.142665703 0.0020090993 0.2602417361
0.142665703 0.0020090993 0.760241812
0.1527646284 0.5003807276 0.516739752
0.1527646284 0.5003807276 0.0167400443
0.1825842727 0.2517323902 0.7649082069
0.1825842727 0.2517323902 0.2649081311
0.1826166705 0.5032176366 0.2687167193
0.1826166705 0.5032176366 0.7687167952
0.1726035258 0.5045863037 0.5131557398
0.1726035258 0.5045863037 0.0131556639
0.1624648394 0.5046644016 0.2605022075
0.1624648394 0.5046644016 0.7605022834
0.1724669394 0.2560297314 0.5145004347
0.1626051073 0.2522335189 0.7639776891
0.1626051073 0.2522335189 0.2639776133
0.1724669394 0.2560297314 0.014500727
0.1924670897 0.2519237303 0.5162924408
0.2027136462 0.255066523 0.766847476
0.2027136462 0.255066523 0.2668474001
0.1924670897 0.2519237303 0.016292641
0.1923330804 0.5037044473 0.5187636973
0.1923330804 0.5037044473 0.0187638975
0.2025796369 0.5007145965 0.2706099687
0.2025796369 0.5007145965 0.7706091241
0.2125335083 0.5030978864 0.5191852375
0.222520882 0.5035658234 0.7695396269
0.222520882 0.5035658234 0.269539551
0.2323867638 0.5003078362 0.5233067595
0.2123972901 0.2553704543 0.5195294647
0.2224697081 0.2524873374 0.7710591966
0.2224697081 0.2524873374 0.2710591207
0.2123972901 0.2553704543 0.0195296649
0.2324342561 0.2514675079 0.525773414
0.2324342561 0.2514675079 0.0257731541
0.2125335083 0.5030978864 0.0191850696
0.2323867638 0.5003078362 0.0233064075
0.2424470327 0.2533672412 0.7736666713
0.2522422282 0.2477259641 0.0250240458
0.2424470327 0.2533672412 0.2736665954
0.2526148035 0.5025811381 0.5253334659
0.2526148035 0.5025811381 0.0253338503
0.2624685361 0.5020630882 0.2787213964
0.2624685361 0.5020630882 0.7787214723
0.2624276706 0.252836175 0.774606393
0.2624276706 0.252836175 0.2746063172
0.2423980677 0.5012157252 0.2730011509
0.2423980677 0.5012157252 0.7730012268
0.2522422282 0.2477259641 0.5250242137
0.2724452333 0.2512553418 0.526564032
0.2724452333 0.2512553418 0.0265640482
0.272622317 0.5005616546 0.530007224
0.272622317 0.5005616546 0.0300073322
0.2824075723 0.2513340906 0.7799271877
0.2824075723 0.2513340906 0.2799280322
0.2824554327 0.5003247574 0.2817863067
0.2824554327 0.5003247574 0.7817854622
0.3023396135 0.4969105742 0.2829183907
0.3023396135 0.4969105742 0.7829184665
0.2923102698 0.5010653866 0.5358554042
0.3123166788 0.2514024263 0.5361250795
0.3123166788 0.2514024263 0.0361250956
0.2923982594 0.2521209277 0.5303367249
0.3124683596 0.5034844714 0.5344407594
0.3124683596 0.5034844714 0.0344405915
0.3024865083 0.2492755581 0.7792497781
0.2923102698 0.5010653866 0.0358552363
0.2923982594 0.2521209277 0.0303370172
0.3024865083 0.2492755581 0.2792497023
0.3323201425 0.2507516098 0.5423819143
0.3223405001 0.249463644 0.790790592
0.3323201425 0.2507516098 0.0423822066
0.3223405001 0.249463644 0.2907905161
0.3324512065 0.501382985 0.5371264676
0.3324512065 0.501382985 0.0371268519
0.3223651666 0.5014552256 0.287295782
0.3223651666 0.5014552256 0.7872958579
0.3423892471 0.499478696 0.781860014
0.3523272878 0.4983345607 0.0328750942
0.3423892471 0.499478696 0.2818599382
0.3624247406 -4.319180434e-04 0.2783891343
0.3624247406 -4.319180434e-04 0.7783892102
0.3523475364 0.2487893982 0.5303983913
0.3424109684 0.2471187523 0.7859566854
0.3523475364 0.2487893982 0.0303988676
0.3424109684 0.2471187523 0.2859566095
0.3623106118 0.2480780558 0.7791991565
0.3623106118 0.2480780558 0.2791990806
0.3523272878 0.4983345607 0.5328751701
0.392230763 0.5002785494 0.0327234134
0.3724312585 0.4945643808 0.5334964357
0.3724312585 0.4945643808 0.0334961757
0.3823567817 0.49819854 0.2790472157
0.3823567817 0.49819854 0.7790472916
0.392230763 0.5002785494 0.5327233052
0.3723355375 0.2461503374 0.5340827263
0.3823310107 0.2457422755 0.2826643621
0.3823310107 0.2457422755 0.7826635175
0.3922123551 0.2489944054 0.0283870715
0.3922123551 0.2489944054 0.5283873315
0.3723355375 0.2461503374 0.0340824664
0.4023403649 0.2488401619 0.7781011271
0.4023403649 0.2488401619 0.2781010512
0.4121922567 -0.0030176119 0.5235092461
0.4121922567 -0.0030176184 0.0235089861
0.4023256387 -1.9137627597e-04 0.2749551463
0.4023256387 -1.9137627597e-04 0.7749552222
0.4121848936 0.2481528997 0.5257347575
0.4121848936 0.2481528997 0.0257352339
0.4322678793 -0.0026077993 0.5179675569
0.4322678793 -0.0026077927 0.0179674811
0.4222834508 -0.003821175 0.2678902059
0.4222834508 -0.0038211424 0.7678902818
0.4421050448 0.2478092686 0.2678451067
0.4423148945 0.4976486001 0.2659583
0.4320948453 0.2503559134 0.5152376699
0.4423148945 0.4976486001 0.7659583759
0.4222024562 0.2506461776 0.7703238022
0.4320948453 0.2503559134 0.0152377781
0.4222024562 0.2506461776 0.2703237263
0.4421050448 0.2478092686 0.7678451825
0.4522514625 0.2494610408 0.508272132
0.4522514625 0.2494610408 0.0082718721
0.4723381298 0.2481476931 0.5015201255
0.4621364885 0.2486149794 0.7582924186
0.4623021593 1.7666043801e-04 0.2575845602
0.4623021593 1.7666043801e-04 0.757584636
0.4723381298 0.2481476931 0.0015203257
0.4621364885 0.2486149794 0.2582932631
0.4723602193 -0.0039858836 0.5079407904
0.4723602193 -0.0039858836 0.0079410826
0.452100518 0.4983417196 0.5087995175
0.452100518 0.4983417196 0.0087998098
0.4822931057 -0.0049702956 0.2528086384
0.4822931057 -0.0049702891 0.7528087143
0.4923658919 -0.0041264795 0.4979655658
0.4923658919 -0.0041264535 -0.0020342707
0.4822415636 0.2452365911 0.7490544293
0.4822415636 0.2452365911 0.2490543534
0.4921781316 0.2447979408 0.5007488357
0.4921781316 0.2447985916 7.4867701086e-04
0.5224038535 0.2431917257 0.2428232895
0.5023098231 0.245399946 0.7437492812
0.5023098231 0.245399946 0.2437492054
0.5122132569 0.2441790143 0.494417449
0.5223486299 0.4946301133 0.743047021
0.5122132569 0.2441790143 -0.0055822219
0.5223486299 0.4946301133 0.2430469452
0.5023760914 0.4948006272 0.2444763162
0.5023760914 0.4948006272 0.7444763921
0.5224038535 0.2431917257 0.7428233654
0.5122500726 -0.0059760609 -0.0060212036
0.5122500726 -0.0059760674 0.4939784213
0.5322373374 -0.0041771976 -0.0057670093
0.5422254475 -0.008774955 0.2427754291
0.5422254475 -0.0087749563 0.7427755049
0.5323809188 0.2423332988 0.4949107799
0.5323809188 0.2423332988 -0.0050894248
0.5423653473 0.2445753615 0.7393369149
0.5423653473 0.2445753615 0.239336839
0.5322373374 -0.0041771846 0.4942333703
0.5523055968 0.2475209569 0.4893589664
0.5523055968 0.2475209569 0.9893544403
0.5724585325 0.2471369751 0.9859029648
0.5523166416 -8.9230561452e-04 0.4918863669
0.5523166416 -8.9230561452e-04 0.9918855224
0.5725358455 -0.0028966576 0.4881339227
0.5725358455 -0.0028966837 0.988130317
0.5623747015 0.246247309 0.74313814
0.5623747015 0.246247309 0.2431380641
0.5623121147 -0.0042636716 0.2423879434
0.5623121147 -0.0042636521 0.7423880193
0.5724585325 0.2471369751 0.4859010481
0.5824503241 0.2454181689 0.7394897002
0.5824503241 0.2454181689 0.2394896244
0.5824871398 -0.0036393954 0.2369254081
0.5824871398 -0.0036394084 0.736925484
0.5924494788 0.2431865192 0.4873893244
0.6024154994 0.2480715476 0.7333157008
0.5924494788 0.2431865192 0.9873847983
0.6024154994 0.2480715476 0.2333156249
0.6025701255 -8.3301623407e-04 0.2408232745
0.5925267919 -0.006982145 0.4886060846
0.6025701255 -8.3301623407e-04 0.7408233504
0.5925267919 -0.0069821385 0.9886089216
0.6125840066 3.5029827229e-04 0.4892650863
0.6225132114 -1.2258497505e-04 0.2366750611
0.6225132114 -1.2258497505e-04 0.736675137
0.6125840066 3.5036335394e-04 0.989262401
0.6126097776 0.2497005412 0.4880207143
0.6126097776 0.2497005412 0.9880198698
0.622793011 0.249740241 0.7327395345
0.622793011 0.249740241 0.2327394586
0.6425225656 -0.0018325076 0.734757037
0.6326117687 0.2484392589 0.9839517306
0.6525548546 -1.797917428e-04 0.4816110941
0.6525548546 -1.797917428e-04 0.9816139312
0.6324313715 1.0363883003e-04 0.9871915156
0.6426845549 0.2469872874 0.231072626
0.6324313715 1.0363883003e-04 0.4871923602
0.6326117687 0.2484392589 0.4839562567
0.6425225656 -0.0018324881 0.2347569611
0.6525806256 0.252648089 0.4796258054
0.6426845549 0.2469872874 0.7310727019
0.6525806256 0.252648089 0.9796258813
0.6625171936 0.0018290835 0.7330957267
0.6725752535 6.5045482841e-04 0.479620283
0.6625171936 0.0018290184 0.2330956509
0.6725752535 6.5045482841e-04 0.9796166773
0.6826075424 0.0030404482 0.2258622785
0.6625871435 0.2528081899 0.2336110712
0.6625871435 0.2528081899 0.7336111471
0.6826075424 0.0030404482 0.7258623544
0.682585453 0.2502329091 0.2284393802
0.6726047061 0.2511004475 0.4825526566
0.682585453 0.2502329091 0.7284394561
0.6726047061 0.2511004475 0.9825527325
0.6924520711 0.0011381116 0.4740942406
0.6924520711 0.0011381116 0.9740943164
0.7027236623 0.0029273362 0.2211903612
0.7027236623 0.0029274013 0.7211904371
0.7025653546 0.2532422845 0.2238355721
0.692599334 0.2531244867 0.4760638826
0.7025653546 0.2532422845 0.7238356479
0.692599334 0.2531244867 0.9760639585
0.7126528672 0.0036553396 0.9697316514
0.7127301802 0.2532234108 0.4709814698
0.7127301802 0.2532234108 0.9709833865
0.722409038 0.2516464825 0.2204595688
0.7326474951 0.2503825969 0.4704310745
0.722409038 0.2516464825 0.7204596447
0.7326474951 0.2503825969 0.9704311504
0.7226372956 7.0486308533e-04 0.2184604741
0.7226372956 7.0486308533e-04 0.71846055
0.7328242107 2.4043975713e-05 0.4660776134
0.7328242107 2.4043975713e-05 0.9660776892
0.7126528672 0.0036552745 0.4697324959
0.7525500837 0.0027510301 0.4671020113
0.7525500837 0.0027510301 0.967099326
0.7624682438 0.0033167848 0.2178935118
0.7624682438 0.0033167848 0.7178935876
0.742705555 -0.0011140388 0.2173182658
0.742705555 -0.0011140388 0.7173183417
0.7426908287 0.250016838 0.2197435027
0.7426908287 0.250016838 0.7197426581
0.762725954 0.2533412086 0.2151673063
0.7526053073 0.2535722484 0.4646399588
0.762725954 0.2533412086 0.7151673822
0.7526053073 0.2535722484 0.9646418754
0.7826579952 0.25161264 0.2142018135
0.772739835 0.2511674815 0.466525845
0.7826579952 0.25161264 0.7142018894
0.772739835 0.2511674815 0.966528682
0.7826174979 0.0020363685 0.2140149736
0.7826174979 0.0020363685 0.7140150495
0.7727582429 6.9015393813e-05 0.4646022226
0.7727582429 6.9015393813e-05 0.9646050597
0.8126223253 0.002613057 0.4622036772
0.8126223253 0.002613057 0.9622028327
0.7926019263 0.0019566435 0.4662957466
0.8027299362 -6.874936713e-04 0.2153541462
0.8027299362 -6.874936713e-04 0.715354222
0.7926019263 0.0019566435 0.9662985837
0.7925430211 0.2514291098 0.4661760955
0.7925430211 0.2514291098 0.9661789325
0.8024832707 0.2503415954 0.2171765252
0.8124161571 0.2517128658 0.4674186267
0.8024832707 0.2503415954 0.7171766011
0.8124161571 0.2517128658 0.9674214637
0.8327163557 0.2495632189 0.968654791
0.8227135194 0.0012796642 0.209894372
0.8227135194 0.0012796642 0.7098944479
0.8326464058 -5.5811205197e-05 0.4630430761
0.8326464058 -5.5811205197e-05 0.9630403908
0.822544167 0.2500519821 0.2140775604
0.8327163557 0.2495632189 0.4686583967
0.822544167 0.2500519821 0.7140776363
0.85265576 0.5023494475 0.4656477896
0.85265576 0.5023494475 0.9656451043
0.8627579989 0.5026286477 0.2158990191
0.8427155105 0.2496413169 0.2100913362
0.8427155105 0.2496413169 0.7100914121
0.8625260597 0.2509937136 0.2174581656
0.8527036205 0.2514896357 0.4687900129
0.8625260597 0.2509937136 0.7174582415
0.8527036205 0.2514896357 0.96879285
0.8627579989 0.5026286477 0.715899095
0.8424982976 1.1353054541e-05 0.2118281187
0.8424982976 1.1418136188e-05 0.7118281946
0.8926965579 0.5022759052 0.4755990839
0.8826532243 0.5014695436 0.7245020128
0.8926965579 0.5022759052 0.9756037617
0.8826532243 0.5014695436 0.2245019369
0.872650388 0.4989287561 0.4669455444
0.872650388 0.4989287561 0.9669428591
0.8826937216 0.2514304114 0.228955721
0.8725914828 0.2505687304 0.4698843608
0.8927481 0.2471421817 0.4785406615
0.8826937216 0.2514304114 0.7289557969
0.8725914828 0.2505687304 0.9698881182
0.8927481 0.2471421817 0.9785398169
0.9127574542 0.4969795608 0.4811959967
0.9127574542 0.4969795608 0.9811997541
0.9026515338 -0.0011263392 0.2323860275
0.9026515338 -0.0011263392 0.7323861034
0.9027288469 0.2494818669 0.2228222188
0.9124850177 0.2479016845 0.47790559
0.9027288469 0.2494818669 0.7228222947
0.9124850177 0.2479016845 0.9779047454
0.9327484006 0.5043045001 0.4851113505
0.9327484006 0.5043045001 0.9851114264
0.9226535249 0.5019160037 0.2326225686
0.942655516 0.505382903 0.7319949361
0.9226535249 0.5019160037 0.7326226445
0.942655516 0.505382903 0.2319948603
0.9227860616 0.2516686102 0.2332815703
0.9227860616 0.2516686102 0.7332816462
0.9426960133 0.2555292535 0.23412281
0.9328036242 0.2500090282 0.4802443098
0.9426960133 0.2555292535 0.7341228859
0.9328036242 0.2500090282 0.9802425449
0.9628820831 0.5045453022 0.7325499334
0.9628820831 0.5045453022 0.2325498575
0.9527577548 0.5074062914 0.4830837237
0.9527577548 0.5074062914 0.9830865607
0.9626427808 0.2539523252 0.2352650183
0.9527982521 0.255832534 0.485807168
0.9724689016 0.2551485259 0.4868729836
0.9626427808 0.2539523252 0.7352650942
0.9527982521 0.255832534 0.9858109254
0.9726345724 0.003901999 0.4825922336
0.9726345724 0.003901999 0.9825895483
0.9724689016 0.2551485259 0.9868693779
0.9826705429 0.0035230286 0.2387901253
0.9826705429 0.0035230286 0.7387902012
0.992588703 0.5032228432 0.493065391
0.992588703 0.503223494 0.993063626
0.9825674588 0.2530086413 0.2326888369
0.9925739767 0.2521827552 0.4907073429
0.9825674588 0.2530086413 0.7326889128
0.9925739767 0.2521827552 0.9907074187
0.0026234541 1.0014736149 0.2392963417
0.0026234541 1.0014736149 0.7392964176
0.02262088 0.9994300512 0.244335496
0.02262088 0.9994300512 0.7443355719
0.0125881861 1.0031722459 0.4959305759
0.0125881861 1.0031722459 0.9959260498
0.012453551 0.7525948885 0.9932753165
0.0225953667 0.7498614593 0.2450303931
0.0024298401 0.752536315 0.2426235642
0.012453551 0.7525948885 0.4932770815
0.0225953667 0.7498614593 0.745030469
0.0024298401 0.752536315 0.74262364
0.0325601356 0.7460411666 1.0020650743
0.0425975787 0.7482279099 0.2494630081
0.0325601356 0.7460411666 0.5020613168
0.0425975787 0.7482279099 0.749463084
0.0525157388 0.4996726393 0.4965785329
0.0524770823 0.7488396774 0.9984847436
0.0524770823 0.7488396774 0.4984874289
0.0525157388 0.4996726393 0.9965795291
0.0425876385 0.4977449209 0.248098985
0.0324677281 0.99954069 0.5008841336
0.0324677281 0.99954069 1.0008869706
0.0425876385 0.4977449209 0.7480990608
0.0624136503 0.5008141714 0.249675619
0.0624136503 0.5008141714 0.7496756949
0.0724212727 1.0001069003 1.0029946717
0.0724212727 1.0001069003 0.5029936754
0.0723932927 0.7489047591 0.9994971765
0.0624659287 0.7470499321 0.2489199759
0.0723932927 0.7489047591 0.4994943394
0.0624659287 0.7470499321 0.7489200518
0.1024231548 0.7497508205 0.7575064026
0.0824907455 0.7484101386 0.7523466767
0.0924475622 1.0021960212 1.0042095911
0.1024548164 1.0001915064 0.7536048546
0.0924475622 1.0021960212 0.5042095152
0.0825253523 1.0024563478 0.2555247195
0.0825253523 1.0024563478 0.7555247954
0.1024548164 1.0001915064 0.2536047787
0.0924479303 0.7530764927 1.0003347345
0.1024231548 0.7497508205 0.2575063267
0.0824907455 0.7484101386 0.2523466009
0.0924479303 0.7530764927 0.5003309771
0.1125485876 0.7493082653 0.0067870933
0.1222856143 0.751273731 0.256077876
0.1125485876 0.7493082653 0.5067875373
0.1222856143 0.751273731 0.7560779519
0.1124153146 0.4990940635 0.5030240484
0.1223979023 0.9984408101 0.2586282864
0.1124153146 0.4990940635 0.0030242486
0.1223979023 0.9984408101 0.7586283622
0.1527646284 1.0003802432 0.516739752
0.1527646284 1.0003802432 0.0167402284
0.142665703 0.5020090704 0.2602408157
0.1324611164 1.0033219337 0.5116315682
0.1324611164 1.0033219337 0.0116312162
0.142665703 0.5020090704 0.7602408916
0.1325251758 0.7504146533 0.0105168958
0.1524984506 0.7509483228 0.0122765041
0.1426325688 0.7525883803 0.2616922762
0.1524984506 0.7509483228 0.512276764
0.1325251758 0.7504146533 0.5105169717
0.1426325688 0.7525883803 0.7616923521
0.1724669394 0.7560311994 0.0145013712
0.1626051073 0.7522304312 0.2639785336
0.1724669394 0.7560311994 0.5145013551
0.1626051073 0.7522304312 0.7639776891
0.1826166705 1.003217803 0.7687158748
0.1826166705 1.003217803 0.2687157989
0.1825842727 0.7517293026 0.2649090515
0.1726035258 1.0045845176 0.5131557398
0.1825842727 0.7517293026 0.7649091273
0.1726035258 1.0045845176 0.0131561241
0.1624648394 1.0046626156 0.2605022075
0.1624648394 1.0046626156 0.7605022834
0.1923330804 1.0037059154 0.5187636973
0.1923330804 1.0037059154 0.0187639896
0.2025796369 1.0007121596 0.7706091241
0.2025796369 1.0007121596 0.2706099687
0.1924670897 0.7519245475 0.0162927331
0.2027136462 0.7550679911 0.2668474001
0.1924670897 0.7519245475 0.5162924408
0.2027136462 0.7550679911 0.766847476
0.2324342561 0.751468976 0.025773062
0.2324342561 0.751468976 0.525773414
0.2125335083 1.0031006561 0.5191852375
0.2123972901 0.7553673666 0.0195297569
0.2125335083 1.0031006561 0.0191855298
0.2224697081 0.7524907578 0.2710591207
0.2123972901 0.7553673666 0.5195294647
0.2323867638 1.0003086534 0.5233067595
0.2323867638 1.0003086534 0.0233067757
0.222520882 1.0035627358 0.269539551
0.222520882 1.0035627358 0.7695396269
0.2224697081 0.7524907578 0.7710591966
0.2423980677 1.0012132883 0.2730011509
0.2423980677 1.0012132883 0.7730012268
0.2526148035 1.0025800029 0.0253337582
0.2624685361 1.0020658579 0.2787213964
0.2522422282 0.7477267813 0.0250232175
0.2424470327 0.7533693601 0.2736665954
0.2522422282 0.7477267813 0.5250232933
0.2424470327 0.7533693601 0.7736666713
0.2624685361 1.0020658579 0.7787214723
0.2526148035 1.0025800029 0.5253334659
0.2624276706 0.7528356906 0.2746063172
0.2624276706 0.7528356906 0.774606393
0.2724452333 0.7512542065 0.0265646004
0.2724452333 0.7512542065 0.5265649524
0.272622317 1.0005624718 0.530007224
0.272622317 1.0005624718 0.0300076083
0.2824554327 1.0003281779 0.2817853863
0.2824554327 1.0003281779 0.7817854622
0.2824075723 0.7513323045 0.2799280322
0.2824075723 0.7513323045 0.7799281081
0.2923982594 0.7521197924 0.0303373853
0.3024865083 0.7492757245 0.2792506226
0.2923982594 0.7521197924 0.5303376453
0.3023396135 0.9969113914 0.2829183907
0.3024865083 0.7492757245 0.7792506985
0.3124683596 1.0034846378 0.0344403154
0.3023396135 0.9969113914 0.7829184665
0.2923102698 1.0010636005 0.5358554042
0.2923102698 1.0010636005 0.0358556044
0.3123166788 0.7514038943 0.0361255558
0.3123166788 0.7514038943 0.5361259999
0.3124683596 1.0034846378 0.534439839
0.3324512065 1.0013825006 0.5371264676
0.3324512065 1.0013825006 0.0371267599
0.3223651666 1.0014540904 0.7872949375
0.3223651666 1.0014540904 0.2872948617
0.3323201425 0.7507530779 0.0423829429
0.3223405001 0.7494644612 0.2907905161
0.3323201425 0.7507530779 0.5423828347
0.3223405001 0.7494644612 0.790790592
0.3624247406 0.4995678579 0.2783900547
0.3523475364 0.7487876121 0.0303995119
0.3424109684 0.747121522 0.2859566095
0.3523475364 0.7487876121 0.5303993116
0.3424109684 0.747121522 0.7859566854
0.3423892471 0.9994821165 0.2818599382
0.3523272878 0.9983366795 0.5328751701
0.3423892471 0.9994821165 0.781860014
0.3523272878 0.9983366795 0.0328750022
0.3624247406 0.4995678579 0.7783901306
0.3623106118 0.7480782222 0.2791990806
0.3623106118 0.7480782222 0.7791991565
0.3724312585 0.994561944 0.0334957156
0.3823567817 0.998200008 0.2790481361
0.3823567817 0.998200008 0.7790472916
0.3724312585 0.994561944 0.5334955153
0.392230763 1.0002761126 0.5327233052
0.392230763 1.0002761126 0.0327235975
0.3823310107 0.745741791 0.2826643621
0.3723355375 0.7461518054 0.0340826505
0.3723355375 0.7461518054 0.5340827263
0.3823310107 0.745741791 0.7826644379
0.3922123551 0.7489958734 0.0283871636
0.3922123551 0.7489958734 0.5283873315
0.4023256387 0.49980866 0.2749551463
0.4023256387 0.49980866 0.7749552222
0.4121922567 0.496982164 0.5235083257
0.4121922567 0.496982164 0.0235085259
0.4023403649 0.7488396774 0.2781010512
0.4023403649 0.7488396774 0.7781011271
0.4121848936 0.7481563201 0.0257351418
0.4121848936 0.7481563201 0.5257347575
0.4423148945 0.997646814 0.2659583
0.4423148945 0.997646814 0.7659583759
0.4322678793 0.4973921784 0.5179675569
0.4322678793 0.4973921784 0.0179675731
0.4222834508 0.4961797073 0.2678892855
0.4222834508 0.4961797073 0.7678893614
0.4222024562 0.7506489472 0.2703228059
0.4320948453 0.7503560798 0.015237594
0.4320948453 0.7503560798 0.5152376699
0.4222024562 0.7506489472 0.7703228818
0.4421050448 0.7478113874 0.2678441863
0.4421050448 0.7478113874 0.7678442621
0.452100518 0.9983431877 0.0087999938
0.452100518 0.9983431877 0.5088004379
0.4723602193 0.4960143999 0.0079411747
0.4723602193 0.4960143999 0.5079407904
0.4522514625 0.7494579531 0.0082715959
0.4522514625 0.7494579531 0.5082712116
0.4623021593 0.5001763713 0.7575837156
0.4623021593 0.5001763713 0.2575836398
0.4723381298 0.748149812 0.0015204177
0.4621364885 0.7486118917 0.2582932631
0.4723381298 0.748149812 0.5015201255
0.4621364885 0.7486118917 0.7582924186
0.4822931057 0.4950297146 0.7528096347
0.4822931057 0.4950297146 0.2528095588
0.4923658919 0.4958731728 0.4979655658
0.4923658919 0.4958731728 -0.0020342891
0.4822415636 0.7452341542 0.2490543534
0.4822415636 0.7452341542 0.7490544293
0.4921781316 0.7447981072 0.5007488357
0.4921781316 0.7447981072 7.4868621479e-04
0.5223486299 0.9946335338 0.2430469452
0.5223486299 0.9946335338 0.743047021
0.5023760914 0.9948027461 0.2444763162
0.5023760914 0.9948027461 0.7444763921
0.5122500726 0.4940235524 -0.0060212036
0.5122500726 0.4940235524 0.4939784213
0.5122132569 0.7441798315 0.494417449
0.5122132569 0.7441798315 -0.0055822679
0.5023098231 0.7453968583 0.2437492054
0.5023098231 0.7453968583 0.7437492812
0.5224038535 0.7431905905 0.2428232895
0.5224038535 0.7431905905 0.7428233654
0.5323809188 0.7423315127 0.4949107799
0.5322373374 0.4958230599 0.4942333703
0.5422254475 0.4912250415 0.7427755049
0.5422254475 0.4912250415 0.2427754291
0.5323809188 0.7423315127 -0.0050892868
0.5322373374 0.4958230599 -0.0057670645
0.5523055968 0.74751852 0.4893589664
0.5523055968 0.74751852 0.9893636443
0.5423653473 0.7445768296 0.239336839
0.5423653473 0.7445768296 0.7393369149
0.5523166416 0.4991077306 0.9918855224
0.5523166416 0.4991077306 0.4918863669
0.5623747015 0.7462494279 0.2431389845
0.5623747015 0.7462494279 0.74313814
0.5724585325 0.7471345383 0.4859010481
0.5623121147 0.4957358505 0.7423870989
0.5623121147 0.4957358505 0.242387023
0.5724585325 0.7471345383 0.9859029648
0.5725358455 0.4971032159 0.988130317
0.5725358455 0.4971032159 0.4881330023
0.5824871398 0.4963599835 0.2369254081
0.5925267919 0.4930180409 0.9886089216
0.6025701255 0.4991669549 0.2408232745
0.6025701255 0.4991669549 0.7408233504
0.5824871398 0.4963599835 0.736925484
0.5925267919 0.4930180409 0.4886060846
0.6024154994 0.748071714 0.2333156249
0.5924494788 0.7431840823 0.4873893244
0.6024154994 0.748071714 0.7333157008
0.5924494788 0.7431840823 0.9873847983
0.5824503241 0.7454163828 0.2394896244
0.5824503241 0.7454163828 0.7394897002
0.6126097776 0.7496987552 0.9880198698
0.6225132114 0.4998776465 0.7366742166
0.6225132114 0.4998776465 0.2366750611
0.6125840066 0.5003501393 0.4892650863
0.622793011 0.7497378042 0.232740379
0.6125840066 0.5003501393 0.989262401
0.622793011 0.7497378042 0.7327404548
0.6126097776 0.7496987552 0.4880207143
0.6324313715 0.5001034798 0.9871915156
0.6324313715 0.5001041306 0.4871932806
0.6525548546 0.4998203747 0.4816120145
0.6425225656 0.4981673008 0.734757037
0.6425225656 0.4981673008 0.2347569611
0.6525548546 0.4998203747 0.9816139312
0.6326117687 0.7484426794 0.4839562567
0.6326117687 0.7484426794 0.9839517306
0.6426845549 0.7469848505 0.231072626
0.6525806256 0.7526469538 0.4796267258
0.6426845549 0.7469848505 0.7310727019
0.6525806256 0.7526469538 0.9796258813
0.6625871435 0.7528096579 0.2336119916
0.682585453 0.7502324247 0.2284403006
0.6625871435 0.7528096579 0.7336120675
0.6826075424 0.5030406145 0.7258623544
0.6725752535 0.5006501657 0.479620283
0.6826075424 0.5030406145 0.2258622785
0.6726047061 0.7510980106 0.4825517362
0.6726047061 0.7510980106 0.9825527325
0.6625171936 0.5018287943 0.2330956509
0.6725752535 0.5006501657 0.9796166773
0.6625171936 0.5018287943 0.7330957267
0.682585453 0.7502324247 0.7284394561
0.7027236623 0.5029273725 0.7211895167
0.7027236623 0.5029273725 0.2211894408
0.7025653546 0.7532391968 0.2238355721
0.692599334 0.7531220498 0.4760638826
0.7025653546 0.7532391968 0.7238356479
0.6924520711 0.501138278 0.9740943164
0.6924520711 0.501138278 0.474095161
0.692599334 0.7531220498 0.9760639585
0.7226372956 0.5007048342 0.7184596296
0.722409038 0.7516446964 0.2204595688
0.7326474951 0.7503821125 0.4704319949
0.7226372956 0.5007048342 0.2184604741
0.7126528672 0.5036549853 0.9697316514
0.7328242107 0.5000240802 0.4660776134
0.7328242107 0.5000240802 0.9660776892
0.7126528672 0.5036549853 0.4697324959
0.722409038 0.7516446964 0.7204596447
0.7326474951 0.7503821125 0.9704311504
0.7127301802 0.7532261804 0.4709814698
0.7127301802 0.7532261804 0.9709833865
0.762725954 0.7533433274 0.2151673063
0.7526053073 0.7535711132 0.4646408791
0.762725954 0.7533433274 0.7151673822
0.7526053073 0.7535711132 0.9646418754
0.7624682438 0.5033165607 0.7178935876
0.7426908287 0.7500176552 0.2197435027
0.7426908287 0.7500176552 0.7197435785
0.7624682438 0.5033165607 0.2178935118
0.742705555 0.4988858022 0.2173182658
0.742705555 0.4988858022 0.7173183417
0.7525500837 0.5027510012 0.4671020113
0.7525500837 0.5027510012 0.967099326
0.7727582429 0.5000689865 0.4646013022
0.7727582429 0.5000689865 0.9646050597
0.7826174979 0.5020364047 0.7140150495
0.7826174979 0.5020364047 0.2140149736
0.7826579952 0.7516121556 0.2142018135
0.772739835 0.7511696004 0.466525845
0.7826579952 0.7516121556 0.7142018894
0.772739835 0.7511696004 0.966528682
0.8024832707 0.7503430635 0.2171765252
0.8124161571 0.7517097781 0.4674186267
0.8024832707 0.7503430635 0.7171766011
0.8124161571 0.7517097781 0.9674214637
0.7926019263 0.5019570051 0.4662957466
0.7926019263 0.5019570051 0.9662985837
0.8027299362 0.4993127378 0.715354222
0.8027299362 0.4993127378 0.2153541462
0.8126223253 0.5026130281 0.4622036772
0.8126223253 0.5026130281 0.9622028327
0.7925430211 0.751429927 0.4661751751
0.7925430211 0.751429927 0.9661789325
0.822544167 0.7500501961 0.2140775604
0.8327163557 0.7495620837 0.4686583967
0.822544167 0.7500501961 0.7140767159
0.8327163557 0.7495620837 0.968654791
0.8326464058 0.4999440298 0.4630421557
0.8326464058 0.4999440298 0.9630403908
0.8227135194 0.5012795052 0.7098944479
0.8227135194 0.5012795052 0.209894372
0.8424982976 0.5000110639 0.7118281946
0.8424982976 0.5000110639 0.2118281187
0.85265576 1.0023522171 0.46564871
0.85265576 1.0023522171 0.9656451043
0.8427155105 0.7496401817 0.2100913362
0.8427155105 0.7496401817 0.7100914121
0.8627579989 1.00262556 0.2158999395
0.8627579989 1.00262556 0.7159000154
0.8625260597 0.7509938799 0.2174581656
0.8527036205 0.7514885005 0.4687900129
0.8625260597 0.7509938799 0.7174582415
0.8527036205 0.7514885005 0.96879285
0.8826937216 0.751429927 0.2289566414
0.8725914828 0.7505708492 0.4698852812
0.8927481 0.7471410464 0.4785406615
0.8826937216 0.751429927 0.7289567173
0.8725914828 0.7505708492 0.9698881182
0.8927481 0.7471410464 0.9785398169
0.872650388 0.9989289225 0.466944624
0.872650388 0.9989289225 0.9669428591
0.8826532243 1.0014671067 0.2245019369
0.8826532243 1.0014671067 0.7245020128
0.8926965579 1.0022741191 0.4755990839
0.8926965579 1.0022741191 0.9755945578
0.9026515338 0.4988734367 0.2323860275
0.9026515338 0.4988734367 0.7323861034
0.9027288469 0.7494839857 0.2228222188
0.9124850177 0.7479025017 0.4779046696
0.9027288469 0.7494839857 0.7228222947
0.9127574542 0.9969829812 0.4811959967
0.9124850177 0.7479025017 0.9779047454
0.9127574542 0.9969829812 0.9811997541
0.9426960133 0.7555300707 0.23412281
0.9328036242 0.7500111471 0.4802443098
0.9227860616 0.7516707291 0.2332815703
0.9426960133 0.7555300707 0.7341228859
0.9328036242 0.7500111471 0.9802425449
0.9227860616 0.7516707291 0.7332816462
0.9226535249 1.0019161701 0.2326216482
0.9226535249 1.0019161701 0.7326217241
0.942655516 1.0053850219 0.2319948603
0.942655516 1.0053850219 0.7319949361
0.9327484006 1.0043046665 0.4851104301
0.9327484006 1.0043046665 0.9851114264
0.9628820831 1.0045454686 0.2325498575
0.9628820831 1.0045454686 0.7325499334
0.9527577548 1.0074090611 0.4830837237
0.9527577548 1.0074090611 0.9830865607
0.9626427808 0.7539550949 0.2352650183
0.9527982521 0.7558359545 0.485807168
0.9724689016 0.755146089 0.4868729836
0.9626427808 0.7539550949 0.7352650942
0.9527982521 0.7558359545 0.9858109254
0.9724689016 0.755146089 0.9868693779
0.9726345724 0.5039022956 0.482593154
0.9726345724 0.5039016447 0.9825895483
0.9825674588 0.753011411 0.2326888369
0.9925739767 0.7521848741 0.4907064225
0.992588703 1.0032243112 0.493065391
0.992588703 1.0032243112 0.993063626
0.9825674588 0.753011411 0.7326889128
0.9925739767 0.7521848741 0.9907074187
0.9826705429 0.5035235204 0.2387901253
0.9826705429 0.5035235204 0.7387902012
0.0224831892 0.1227906787 0.9939564077
0.0025794593 0.1260616823 0.992078805
0.0125184939 0.3780142149 0.243748285
0.0224319785 0.3739407546 0.4901661515
0.0025726116 0.3766032448 0.4906530396
0.0125184939 0.3780142149 0.7437483609
0.0224319785 0.3739407546 0.9901643866
0.0025726116 0.3766032448 0.9906521951
0.0126385501 0.1285764371 0.2428950802
0.0224831892 0.1227906787 0.4939563318
0.0025794593 0.1260616823 0.4920768884
0.0126385501 0.1285764371 0.7428951561
0.0425482456 0.1224099511 0.9995339922
0.0325085935 0.3744776782 0.2451675317
0.0424698281 0.3740865375 0.49788181
0.0325085935 0.3744776782 0.7451676076
0.0424698281 0.3740865375 0.9978864879
0.0326212497 0.1242413486 0.2486917184
0.0425482456 0.1224099511 0.4995302348
0.0326212497 0.1242413486 0.7486917942
0.0524432118 0.3727439031 0.2472411782
0.0524432118 0.3727439031 0.7472412541
0.0525669127 0.1246383467 0.2477391111
0.0525669127 0.1246383467 0.747739187
0.0725777396 0.1244769442 0.7499969122
0.0625679083 0.1246416007 0.9960457009
0.0724227453 0.3753894721 0.2473322972
0.0625075304 0.3756315758 0.4980815354
0.0724227453 0.3753901229 0.7473314527
0.0625075304 0.3756315758 0.9980797705
0.0725777396 0.1244769442 0.2499968363
0.0625679083 0.1246416007 0.496050227
0.1023572547 0.1237180922 0.0074346822
0.0825286657 0.1257343216 1.0033996448
0.0925097808 0.3738118929 0.2537428378
0.1025232936 0.3737988766 0.5042518533
0.0824185867 0.3759263956 0.500599732
0.0925097808 0.3738118929 0.7537429136
0.1025232936 0.3737988766 0.0042516854
0.0824185867 0.3759263956 5.9962849087e-04
0.0924586069 0.1253204023 0.255209945
0.1023572547 0.1237180922 0.507434574
0.0825286657 0.1257343216 0.5034014097
0.0924586069 0.1253204023 0.7552100208
0.1124285683 0.3728630025 0.757425408
0.1225558418 0.3760539557 0.0058438741
0.1125147171 0.1222557076 0.2569255584
0.1225168171 0.125378325 0.5070940284
0.1125147171 0.1222557076 0.7569256343
0.1225168171 0.125378325 0.0070942286
0.1124285683 0.3728630025 0.2574253321
0.1225558418 0.3760539557 0.505844134
0.1524804109 0.3762849955 0.2626816992
0.1325126585 0.3751512732 0.2565914556
0.1425228579 0.3776822985 0.5097493636
0.1524804109 0.3762849955 0.7626817751
0.1325126585 0.3751512732 0.7565915315
0.1425228579 0.3776822985 0.0097490116
0.1525474155 0.1263187548 0.261111508
0.132422828 0.1265563028 0.2594529589
0.1424672662 0.1284579885 0.5113213956
0.1525474155 0.1263187548 0.7611115838
0.132422828 0.1265563028 0.7594530348
0.1424672662 0.1284579885 0.0113213197
0.1825448798 0.1267743263 0.5161184864
0.1825448798 0.1267743263 0.0161185026
0.1725435161 0.3776666789 0.2657162365
0.1625675553 0.3762934561 0.5120420637
0.1725435161 0.3776666789 0.765715392
0.1625675553 0.3762934561 0.0120420799
0.1725991079 0.1282341077 0.2615827494
0.1625196948 0.1268843143 0.5117641049
0.1725991079 0.1282341077 0.7615828253
0.1625196948 0.1268843143 0.011764029
0.1824745617 0.3772807447 0.5184691714
0.1824745617 0.3772807447 0.0184690955
0.2024728713 0.3784906125 0.018566289
0.1927196456 0.1277863459 0.2699610913
0.2025439256 0.1285497536 0.5169818155
0.1927196456 0.1277863459 0.7699611671
0.2025439256 0.1285497536 0.0169821998
0.1925127412 0.3789494382 0.2665896899
0.2024728713 0.3784906125 0.5185658127
0.1925127412 0.378950089 0.7665897658
0.2125570704 0.3778938138 0.2705575062
0.2225094691 0.3769481775 0.5216012704
0.2125570704 0.3778938138 0.7705575821
0.2225094691 0.3769481775 0.0216013786
0.2125659062 0.1282679501 0.2683458007
0.2225540162 0.1278937306 0.5204388134
0.2125659062 0.1282679501 0.7683458766
0.2225540162 0.1278937306 0.0204385535
0.232518196 0.3758574091 0.2741470408
0.232518196 0.3758574091 0.7741471167
0.2325991906 0.1259367255 0.2733628656
0.2325991906 0.1259367255 0.7733629414
0.2525179781 0.1231701047 0.2747287295
0.2424890026 0.126264737 0.5247683443
0.2525179781 0.1231701047 0.7747288054
0.2424890026 0.126264737 0.0247680844
0.2623275318 0.3755235403 0.524330237
0.2623275318 0.3755235403 0.0243306214
0.262517501 0.1270333513 0.5254448335
0.262517501 0.1270333513 0.0254446656
0.2523861778 0.3727634276 0.2754779298
0.2424669132 0.3768681271 0.5245511315
0.2523861778 0.3727634276 0.7754770853
0.2424669132 0.3768681271 0.0245511476
0.272309015 0.3758984105 0.276608173
0.272309015 0.3758984105 0.7766082488
0.2725011932 0.1251082361 0.2783872936
0.2725011932 0.1251082361 0.7783873694
0.2823950549 0.3767613932 0.5290684227
0.2823950549 0.3767613932 0.0290681627
0.2825393726 0.1275325275 0.5302097106
0.2825393726 0.1275325275 0.0302093586
0.3123689571 0.1261990045 0.2861738224
0.3123689571 0.1261990045 0.7861738983
0.2924781496 0.3752977069 0.2816988693
0.3024876127 0.3758014389 0.5321968401
0.2924781496 0.3752977069 0.7816989452
0.3024876127 0.3758014389 0.0321970404
0.2925226966 0.1261098427 0.2819243657
0.3024246578 0.1243519874 0.5320606219
0.2925226966 0.1261098427 0.7819244416
0.3024246578 0.1243519874 0.0320608221
0.3124433249 0.3750380312 0.2860771811
0.3124433249 0.3750380312 0.786077257
0.3324420026 0.1238905585 0.2879106049
0.3224675144 0.1286174386 0.5388411606
0.3324420026 0.1238905585 0.7879106808
0.3224675144 0.1286174386 0.0388411768
0.3323090978 0.3734168473 0.2855175818
0.3224163405 0.3788570222 0.5363616206
0.3323090978 0.3734168473 0.7855176577
0.3224163405 0.3788570222 0.0363614527
0.3523320738 0.3745505696 0.2815921037
0.3423145112 0.3756257184 0.5345125501
0.3523320738 0.3745505696 0.7815921795
0.3423145112 0.3756257184 0.0345127503
0.3623658354 0.1247144922 0.0303314028
0.3523939243 0.1222537551 0.2831254792
0.3425074257 0.1265751765 0.5340155376
0.3523939243 0.1222537551 0.7831255551
0.3425074257 0.1265751765 0.0340158299
0.3622369803 0.3736159972 0.5305244852
0.3622369803 0.3736159972 0.0305243172
0.3623658354 0.1247144922 0.5303312025
0.3922786234 0.3733120659 0.278240951
0.3823126028 0.1235033227 0.031754147
0.3924001154 0.1240487069 0.7798747253
0.3922786234 0.3733120659 0.7782410269
0.3823126028 0.1235033227 0.5317541308
0.3723981243 0.3739700413 0.2833482144
0.3823236476 0.3721080554 0.0312655101
0.372383398 0.1238528112 0.7819686205
0.372383398 0.1238528112 0.281969465
0.3924001154 0.1240487069 0.2798746494
0.3823236476 0.3721080554 0.5312654019
0.3723981243 0.3739700413 0.7833482903
0.4022225546 0.3720162903 0.528236387
0.4022225546 0.3720162903 0.0282367713
0.4022556887 0.1222225159 0.5259565723
0.4022556887 0.1222225159 0.0259568646
0.4121664857 0.3713492034 0.2749441016
0.4121664857 0.3713492034 0.7749441774
0.4122327541 0.1225062719 0.2758884253
0.4122327541 0.1225062719 0.7758885011
0.4421970842 0.1216257172 0.5154659274
0.4421970842 0.1216257172 0.0154662197
0.432201611 0.3740962997 0.2671400852
0.4222429535 0.3739160236 0.5197623242
0.432201611 0.3740962997 0.7671401611
0.4222429535 0.3739160236 0.0197618802
0.4321390242 0.1250639806 0.2684010243
0.4223129034 0.1235651503 0.5207361005
0.4321390242 0.1250639806 0.7684011002
0.4223129034 0.1235651503 0.0207361167
0.4423148945 0.3724367177 0.5139666065
0.4423148945 0.3724367177 0.0139661624
0.4722534536 0.1211258902 0.753636148
0.4621769858 0.1230191153 0.0076010893
0.4522809151 0.3689769774 0.259097687
0.4522809151 0.3689769774 0.7590977629
0.4521925573 0.1217636903 0.2608906135
0.4521925573 0.1217636903 0.7608906894
0.4722534536 0.3717429474 0.2528224443
0.4622911146 0.3725584204 0.5055496081
0.4722534536 0.3717429474 0.7528225202
0.4622911146 0.3725584204 0.0055497163
0.4722534536 0.1211258902 0.2536360721
0.4621769858 0.1230191153 0.5076011652
0.4822783794 0.371173483 0.5026052694
0.4822783794 0.371173483 0.0026057457
0.4822967873 0.1208883422 0.5017640297
0.4822967873 0.1208883422 0.0017639539
0.4922591263 0.3690381541 0.247731748
0.4922591263 0.3690381541 0.7477318238
0.4923953445 0.1196322664 0.2501146467
0.4923953445 0.1196322664 0.7501147225
0.502258281 0.3689893429 -0.0035020406
0.5123568383 0.1194754196 0.2468362051
0.522330222 0.3691605076 -0.004185847
0.5123568383 0.1194754196 0.746836281
0.5122500726 0.3686990787 0.2463787695
0.5023724098 0.1207360511 0.4982564102
0.5122500726 0.3686990787 0.7463788454
0.5023724098 0.1207360511 -0.0017431503
0.522304451 0.1188643029 0.4949752074
0.502258281 0.3689893429 0.4964975382
0.522304451 0.1188643029 -0.0050249789
0.522330222 0.3691605076 0.4958146063
0.5322999242 0.1197429052 0.2413083219
0.5322999242 0.1197429052 0.7413083977
0.5322299743 0.3688162257 0.2433644809
0.5322299743 0.3688162257 0.7433645568
0.5422659448 0.1170153333 0.4881955891
0.5422659448 0.1170153333 -0.0118039898
0.5422070396 0.3662240237 0.4936627263
0.5422070396 0.3662240237 -0.0063370826
0.5723517668 0.3737819554 0.2377583642
0.5723517668 0.3737819554 0.7377575197
0.5523608204 0.3721822485 0.2426097582
0.5523608204 0.3721822485 0.7426098341
0.5523681836 0.1225713535 0.2406806135
0.5523681836 0.1225713535 0.7406806894
0.5623747015 0.1230184645 0.4904275432
0.5623747015 0.1230184645 0.9904313007
0.5623489305 0.3719056515 0.4896709798
0.5623489305 0.3719056515 0.9896673741
0.5723701747 0.1234427968 0.23660235
0.5723701747 0.1234427968 0.7366024259
0.582398782 0.1182948385 0.9879646462
0.5824540056 0.3701126521 0.4902287383
0.5824540056 0.3701126521 0.9902288141
0.5924605235 0.1209299944 0.2386778373
0.6024633599 0.1242595715 0.4896304825
0.5924605235 0.1209299944 0.7386769928
0.6024633599 0.1242595715 0.9896305584
0.5924237078 0.3717546621 0.2394040278
0.602496494 0.3727055049 0.4885563833
0.5924237078 0.3717546621 0.7394041036
0.602496494 0.3727055049 0.988553698
0.582398782 0.1182948385 0.4879627295
0.6124735593 0.1245211997 0.2399157665
0.6124735593 0.1245211997 0.7399158424
0.6125582355 0.3732821283 0.2356506632
0.6125582355 0.3732821283 0.735650739
0.6224727141 0.1252429552 0.4871988029
0.6224727141 0.1252429552 0.9872007196
0.6226126139 0.3747985307 0.4869797493
0.6226126139 0.3747985307 0.9869798251
0.6524812231 0.1266780055 0.731330412
0.6324939583 0.1254635819 0.2373349832
0.6326854001 0.3762882496 0.7354767847
0.6324939583 0.1254635819 0.7373350591
0.6424194816 0.1245693601 0.4810708231
0.6426072418 0.3754024884 0.4855908755
0.6524812231 0.1266780055 0.2313303362
0.6524664968 0.3767353605 0.2327449809
0.6426072418 0.3754024884 0.985590031
0.6424194816 0.1245693601 0.981070899
0.6524664968 0.3767353605 0.7327450568
0.6326854001 0.3762882496 0.2354767088
0.6626239592 0.1261111443 0.4797141632
0.6626239592 0.1261111443 0.9797179206
0.662513512 0.3763455215 0.4843280957
0.662513512 0.3763455215 0.9843290919
0.6726157508 0.1285133079 0.2278125923
0.6825155031 0.1272969319 0.4760243057
0.6726157508 0.1285133079 0.7278126682
0.6825155031 0.1272969319 0.9760271427
0.6724648063 0.3781983959 0.2307145929
0.6825523188 0.377638043 0.4766234818
0.6724648063 0.3781983959 0.7307146688
0.6825523188 0.377638043 0.9766253985
0.6925846078 0.1280382119 0.2230937349
0.70248436 0.1287658247 0.4733063838
0.6925846078 0.1280382119 0.7230938108
0.70248436 0.1287658247 0.973302778
0.6926140603 0.3786311889 0.226747697
0.7025653546 0.3769058744 0.4742746377
0.6926140603 0.3786311889 0.7267477729
0.7025653546 0.3769058744 0.9742783951
0.7126381409 0.3760904014 0.2244393502
0.7126381409 0.3760904014 0.7244394261
0.7326254057 0.1268719488 0.2217011796
0.7226262509 0.1256432073 0.4694352088
0.7326254057 0.1268719488 0.7217012555
0.7226262509 0.1256432073 0.9694371254
0.7325775452 0.3770028461 0.2194839517
0.722607843 0.3766793903 0.4707265208
0.7325775452 0.3770028461 0.7194840276
0.722607843 0.3766793903 0.9707256763
0.7125829173 0.1249494369 0.2211480231
0.7125829173 0.1249494369 0.721148099
0.7427239629 0.1254004527 0.4679358878
0.7427239629 0.1254004527 0.9679368841
0.7426466499 0.3754669192 0.467281488
0.7426466499 0.3754669192 0.9672834047
0.7526200336 0.1248791487 0.2165985181
0.7626155068 0.1247847804 0.4685856856
0.7526200336 0.1248791487 0.716598594
0.7626155068 0.1247847804 0.9685811595
0.7526863019 0.3754617127 0.2187255475
0.7626007805 0.3759693495 0.4677766597
0.7526863019 0.3754617127 0.7187256233
0.7626007805 0.3759693495 0.9677804172
0.7725373485 0.1260974772 0.2166114036
0.7825843637 0.1266148763 0.465536422
0.7725373485 0.1260974772 0.7166114795
0.7825843637 0.1266148763 0.9655346571
0.7726404326 0.375481888 0.2175225932
0.7826837662 0.3757916766 0.4665709443
0.7726404326 0.375481888 0.7175226691
0.7826837662 0.3757916766 0.9665747017
0.7926313789 0.1274687475 0.2151774306
0.7926313789 0.1274687475 0.7151775065
0.7926240158 0.3779022745 0.2188166664
0.7926240158 0.3779022745 0.7188167423
0.8127290909 0.1285035457 0.2135299263
0.8026783941 0.1238892569 0.4655290589
0.8127290909 0.1285035457 0.7135300022
0.8026783941 0.1238892569 0.9655254532
0.8127327725 0.3779549906 0.2183270171
0.8026857573 0.3746963525 0.4689934199
0.8127327725 0.3779549906 0.718327093
0.8026857573 0.3746963525 0.9689953366
0.8326243164 0.1257401789 0.2137158458
0.8227319272 0.1257525445 0.4619892255
0.8326243164 0.1257401789 0.7137159216
0.8227319272 0.1257525445 0.9619911422
0.8326095901 0.3747035115 0.2165635432
0.8226582958 0.3740500918 0.4659312708
0.8326095901 0.3747028607 0.7165636191
0.8226582958 0.3740500918 0.9659304263
0.8426713316 0.1241255033 0.9623224838
0.8427081473 0.3754233145 0.464654685
0.8427081473 0.3754233145 0.9646510793
0.8525600391 0.1246852054 0.2152483009
0.8626917305 0.1260226333 0.467679098
0.8525600391 0.1246852054 0.7152483768
0.8626917305 0.1260226333 0.9676791739
0.8526852126 0.3767672505 0.2189989043
0.8626033728 0.376074131 0.4713091299
0.8526852126 0.3767672505 0.7189989802
0.8626033728 0.376074131 0.9713055242
0.8426713316 0.1241255033 0.4623196468
0.87270193 0.1256171746 0.2196845975
0.8926486975 0.1241847276 0.2265811058
0.8825943191 0.1274049675 0.474422821
0.87270193 0.1256171746 0.7196846733
0.8926486975 0.1241847276 0.7265811817
0.8825943191 0.1274049675 0.9744256581
0.8726319801 0.3758138044 0.2241457447
0.8925677029 0.3764255719 0.2287375877
0.8825832744 0.375925094 0.4768268888
0.8726319801 0.3758138044 0.7241458205
0.8925677029 0.3764255719 0.7287376636
0.8825832744 0.375925094 0.9768278851
0.9128126778 0.1234141609 0.2296883542
0.9027951152 0.1236276287 0.4777472823
0.9128126778 0.1234141609 0.7296884301
0.9027951152 0.1236276287 0.9777482786
0.9126801412 0.3722759661 0.2286897273
0.9026883496 0.3739602791 0.4783262098
0.9126801412 0.3722759661 0.7286898031
0.9026883496 0.3739602791 0.9783281264
0.9228412852 0.1259126453 0.4819341522
0.9228412852 0.1259126453 0.9819360689
0.9227934247 0.3750829375 0.4803133393
0.9227934247 0.3750829375 0.9803161764
0.9328367584 0.1284085265 0.2335135095
0.9428948183 0.1296483318 0.482834297
0.9328367584 0.1284085265 0.7335135854
0.9428948183 0.1296483318 0.9828380545
0.9327042217 0.3786318397 0.2318383934
0.9426076555 0.3811706748 0.4830708382
0.9327042217 0.3786318397 0.7318384692
0.9426076555 0.3811706748 0.9830681529
0.9526657155 0.1309375993 0.2308839453
0.9726713881 0.128271855 0.235086462
0.9626685518 0.1308542948 0.4854408514
0.9526657155 0.1309375993 0.7308840212
0.9726713881 0.128271855 0.7350865378
0.9626685518 0.1308542948 0.985442768
0.9526730786 0.3796139218 0.2357933241
0.972542533 0.3772807447 0.2348931793
0.9626133282 0.3813600624 0.4871343754
0.9526730786 0.3796139218 0.7357934
0.972542533 0.3772807447 0.7348932552
0.9626133282 0.3813600624 0.987136292
0.992640245 0.1272904238 0.2418071751
0.9826153193 0.1290424217 0.4874012895
0.992640245 0.1272904238 0.741807251
0.9826153193 0.1290424217 0.9874032061
0.9926770608 0.3766748346 0.2393653712
0.9826374087 0.378737272 0.4872254943
0.9926770608 0.3766748346 0.7393654471
0.9826374087 0.378737272 0.9872283314
0.0224319785 0.8739396194 0.4901661515
0.0126385501 0.6285759527 0.2428950802
0.0025726116 0.8766014587 0.4906530396
0.0224831892 0.6227908451 0.4939563318
0.0125184939 0.8780137305 0.7437474405
0.0025794961 0.6260618487 0.4920768884
0.0224319785 0.8739396194 0.9901643866
0.0126385501 0.6285759527 0.7428951561
0.0025726116 0.8766014587 0.9906521951
0.0224831892 0.6227908451 0.9939564077
0.0025794961 0.6260618487 0.992078805
0.0125184939 0.8780137305 0.2437473646
0.0424698281 0.8740893071 0.49788181
0.0326212497 0.624241515 0.2486917184
0.0325085935 0.874479797 0.7451676076
0.0425482456 0.6224101175 0.4995311551
0.0424698281 0.8740893071 0.9978772839
0.0326212497 0.624241515 0.7486917942
0.0425482456 0.6224101175 0.9995339922
0.0325085935 0.874479797 0.2451684521
0.0525669127 0.6246378622 0.2477391111
0.0525669127 0.6246378622 0.747739187
0.0524432118 0.8727421171 0.7472403337
0.0524432118 0.8727421171 0.2472402578
0.0625075304 0.8756317422 0.4980815354
0.0725777396 0.6244771106 0.2499968363
0.0724227453 0.8753909401 0.7473314527
0.0625679083 0.6246417671 0.4960493066
0.0625075304 0.8756317422 0.9980797705
0.0725777396 0.6244771106 0.7499969122
0.0625679083 0.6246417671 0.9960457009
0.0724227453 0.8753909401 0.2473322972
0.0824185867 0.8759246096 0.500599732
0.0924586069 0.6253199179 0.2552090246
0.0925097808 0.8738094561 0.7537429136
0.1023572547 0.6237182586 0.507434574
0.0825286657 0.625734488 0.5034004893
0.1025232936 0.8737964397 0.0042518695
0.0924586069 0.6253199179 0.7552091005
0.0824185867 0.8759246096 5.9966530661e-04
0.1023572547 0.6237182586 0.0074344981
0.0825286657 0.625734488 1.0033996448
0.0925097808 0.8738094561 0.2537428378
0.1025232936 0.8737964397 0.5042518533
0.1125147171 0.622255874 0.2569255584
0.1124285683 0.8728657722 0.757425408
0.1225168171 0.6253784914 0.5070940284
0.1225558418 0.8760547729 0.0058440581
0.1125147171 0.622255874 0.7569247139
0.1225168171 0.6253784914 0.0070943206
0.1124285683 0.8728657722 0.2574262525
0.1225558418 0.8760547729 0.505844134
0.1525474155 0.6263182704 0.261111508
0.132422828 0.6265564692 0.2594529589
0.1524804109 0.8762825587 0.7626808547
0.1424672662 0.6284581549 0.5113213956
0.1325126585 0.875150138 0.7565915315
0.1425228579 0.8776818141 0.0097485514
0.1525474155 0.6263182704 0.7611115838
0.132422828 0.6265564692 0.7594530348
0.1424672662 0.6284581549 0.0113215038
0.1524804109 0.8762825587 0.2626807788
0.1325126585 0.875150138 0.2565914556
0.1425228579 0.8776818141 0.5097484432
0.1725991079 0.628234274 0.2615827494
0.1725435161 0.8776687977 0.7657163124
0.1625196948 0.6268844807 0.5117641049
0.1625675553 0.876295575 0.0120416197
0.1725991079 0.628234274 0.7615828253
0.1625196948 0.6268844807 0.0117643051
0.1725435161 0.8776687977 0.2657162365
0.1625675553 0.876295575 0.5120420637
0.1825448798 0.6267744927 0.5161184864
0.1824745617 0.8772783079 0.0184692796
0.1825448798 0.6267744927 0.0161188707
0.1824745617 0.8772783079 0.5184691714
0.1927196456 0.6277865123 0.2699610913
0.1925127412 0.8789509062 0.7665897658
0.2025439256 0.62854992 0.5169818155
0.2024728713 0.8784888265 0.0185668413
0.1927196456 0.6277865123 0.7699611671
0.2025439256 0.62854992 0.0169819237
0.1925127412 0.8789509062 0.2665896899
0.2024728713 0.8784888265 0.5185667331
0.232518196 0.8758595279 0.7741471167
0.2325991906 0.6259362411 0.7733629414
0.232518196 0.8758595279 0.2741479612
0.2125659062 0.6282681165 0.2683458007
0.2125570704 0.8778965835 0.7705575821
0.2225540162 0.627893897 0.5204388134
0.2225094691 0.8769463915 0.0216017467
0.2125659062 0.6282681165 0.7683449562
0.2225540162 0.627893897 0.0204384614
0.2125570704 0.8778965835 0.2705575062
0.2225094691 0.8769463915 0.5216021908
0.2325991906 0.6259362411 0.2733628656
0.2525179781 0.6231696203 0.2747287295
0.2523861778 0.8727616415 0.7754780056
0.2424890026 0.6262649034 0.5247683443
0.2424669132 0.8768682935 0.0245515158
0.2525179781 0.6231696203 0.7747288054
0.2424890026 0.6262649034 0.0247681764
0.2523861778 0.8727616415 0.2754779298
0.2424669132 0.8768682935 0.5245511315
0.262517501 0.6270335177 0.5254448335
0.2623275318 0.8755211034 0.0243308054
0.262517501 0.6270335177 0.0254449418
0.2623275318 0.8755211034 0.5243311574
0.2825393726 0.6275326939 0.5302097106
0.2823950549 0.8767641628 0.0290680707
0.2825393726 0.6275326939 0.0302096347
0.2823950549 0.8767641628 0.5290684227
0.2725011932 0.6251084025 0.2783872936
0.272309015 0.8758985769 0.7766082488
0.2725011932 0.6251084025 0.7783873694
0.272309015 0.8758985769 0.276608173
0.2925226966 0.6261100091 0.2819243657
0.2924781496 0.8752998258 0.7816980248
0.3024246578 0.6243521538 0.5320606219
0.3024876127 0.8758009545 0.0321972244
0.2925226966 0.6261100091 0.7819244416
0.3024246578 0.6243521538 0.0320608221
0.2924781496 0.8752998258 0.2816988693
0.3024876127 0.8758009545 0.5321968401
0.3123689571 0.6261991709 0.2861738224
0.3124433249 0.8750394992 0.786077257
0.3123689571 0.6261991709 0.7861738983
0.3124433249 0.8750394992 0.2860771811
0.3324420026 0.6238907249 0.2879106049
0.3323090978 0.8734189662 0.7855176577
0.3224675144 0.6286176049 0.538842081
0.3224163405 0.8788597919 0.0363616368
0.3324420026 0.6238907249 0.7879106808
0.3224675144 0.6286176049 0.0388419131
0.3323090978 0.8734189662 0.2855175818
0.3224163405 0.8788597919 0.5363616206
0.3623658354 0.6247146586 0.5303321229
0.3622369803 0.8736142111 0.0305241332
0.3623658354 0.6247146586 0.030331955
0.3622369803 0.8736142111 0.5305244852
0.3523939243 0.6222539215 0.2831254792
0.3523320738 0.8745513868 0.7815921795
0.3425074257 0.626574692 0.5340155376
0.3423145112 0.875625234 0.0345127503
0.3523939243 0.6222539215 0.7831255551
0.3425074257 0.626574692 0.034016014
0.3523320738 0.8745513868 0.2815921037
0.3423145112 0.875625234 0.5345125501
0.372383398 0.6238529776 0.281969465
0.3723981243 0.8739721602 0.7833482903
0.3823126028 0.6235034891 0.5317550512
0.3823236476 0.8721108251 0.031265326
0.372383398 0.6238529776 0.7819695409
0.3823126028 0.6235034891 0.0317546072
0.3723981243 0.8739721602 0.2833482144
0.3823236476 0.8721108251 0.5312654019
0.3924001154 0.6240488733 0.2798746494
0.3922786234 0.8733148355 0.7782410269
0.3924001154 0.6240488733 0.7798747253
0.3922786234 0.8733148355 0.278240951
0.4022556887 0.6222226823 0.5259565723
0.4022556887 0.6222226823 0.0259568646
0.4122327541 0.6225057875 0.2758875049
0.4022225546 0.8720132026 0.528236387
0.4022225546 0.8720132026 0.0282367713
0.4121664857 0.8713493698 0.7749450978
0.4122327541 0.6225057875 0.7758875807
0.4121664857 0.8713493698 0.274945022
0.4321390242 0.625064147 0.2684010243
0.432201611 0.8740958153 0.7671392407
0.4223129034 0.6235653167 0.5207351801
0.4222429535 0.8739135867 0.0197617881
0.4321390242 0.625064147 0.7684011002
0.4223129034 0.6235653167 0.0207355644
0.432201611 0.8740958153 0.2671400852
0.4222429535 0.8739135867 0.5197614038
0.4421970842 0.6216258836 0.5154659274
0.4423148945 0.8724362333 0.0139663465
0.4421970842 0.6216258836 0.0154654834
0.4423148945 0.8724362333 0.5139666065
0.4521925573 0.6217632059 0.2608896931
0.4522809151 0.8689738897 0.7590977629
0.4521925573 0.6217632059 0.760889769
0.4522809151 0.8689738897 0.259097687
0.4722534536 0.6211260566 0.2536360721
0.4722534536 0.8717398597 0.7528215998
0.4621769858 0.6230192817 0.5076011652
0.4622911146 0.8725598884 0.0055498084
0.4722534536 0.6211260566 0.753636148
0.4621769858 0.6230192817 0.0076011813
0.4722534536 0.8717398597 0.2528215239
0.4622911146 0.8725598884 0.5055496081
0.4923953445 0.6196324328 0.2501155671
0.4922591263 0.8690389713 0.7477318238
0.4923953445 0.6196324328 0.7501156429
0.4922591263 0.8690389713 0.247731748
0.4822967873 0.6208878577 0.5017640297
0.4822783794 0.8711736494 0.0026054696
0.4822967873 0.6208878577 0.001764322
0.4822783794 0.8711736494 0.5026052694
0.5023724098 0.6207362175 0.4982573306
0.502258281 0.868986906 -0.003502372
0.5023724098 0.6207362175 -0.0017429386
0.502258281 0.868986906 0.4964975382
0.5122500726 0.8687005468 0.7463788454
0.5123568383 0.619475586 0.746836281
0.5123568383 0.619475586 0.2468362051
0.5122500726 0.8687005468 0.2463787695
0.522304451 0.6188644693 0.4949752074
0.522330222 0.8691626265 -0.004185442
0.522304451 0.6188644693 -0.0050249605
0.522330222 0.8691626265 0.4958146063
0.5322299743 0.8688176937 0.7433645568
0.5322999242 0.6197424207 0.7413083977
0.5322999242 0.6197424207 0.2413083219
0.5322299743 0.8688176937 0.2433644809
0.5422659448 0.6170154997 0.4881965095
0.5422070396 0.866220936 -0.0063367605
0.5422659448 0.6170154997 -0.0118036124
0.5422070396 0.866220936 0.4936636467
0.5523608204 0.8721824149 0.7426107545
0.5523608204 0.8721824149 0.2426106786
0.5523681836 0.6225708691 0.7406816098
0.5523681836 0.6225708691 0.2406815339
0.5623747015 0.6230186309 0.4904275432
0.5623489305 0.8719025638 0.9896673741
0.5623747015 0.6230186309 0.9904313007
0.5623489305 0.8719025638 0.4896719002
0.5723517668 0.8737834234 0.7377584401
0.5723701747 0.6234423124 0.7366033463
0.5723701747 0.6234429632 0.2366032704
0.5723517668 0.8737834234 0.2377583642
0.582398782 0.6182943541 0.9879646462
0.5824540056 0.8701128185 0.4902287383
0.5924237078 0.871752876 0.7394031832
0.5924605235 0.6209301608 0.2386769169
0.602496494 0.8727030681 0.988553698
0.6024633599 0.6242597379 0.4896304825
0.5924605235 0.6209301608 0.7386769928
0.6024633599 0.6242597379 0.9896305584
0.5924237078 0.871752876 0.2394040278
0.602496494 0.8727030681 0.4885563833
0.582398782 0.6182943541 0.4879618091
0.5824540056 0.8701128185 0.9902288141
0.6124735593 0.6245213661 0.2399157665
0.6124735593 0.6245213661 0.7399158424
0.6125582355 0.8732822947 0.2356515835
0.6224727141 0.6252431216 0.4871988029
0.6226126139 0.8747986971 0.9869798251
0.6224727141 0.6252431216 0.9872007196
0.6226126139 0.8747986971 0.4869806697
0.6125582355 0.8732822947 0.7356516594
0.6326854001 0.8762890668 0.7354767847
0.6324939583 0.6254637483 0.2373359036
0.6324939583 0.6254637483 0.7373359795
0.6326854001 0.8762890668 0.2354767088
0.6524664968 0.8767381302 0.7327450568
0.6524812231 0.6266775211 0.2313303362
0.6424194816 0.6245695265 0.4810717435
0.6426072418 0.8754039564 0.985590031
0.6524812231 0.6266775211 0.731330412
0.6424194816 0.6245695265 0.981070899
0.6524664968 0.8767381302 0.2327449809
0.6426072418 0.8754039564 0.4855908755
0.6724648063 0.8781959591 0.7307146688
0.662513512 0.8763476403 0.9843290919
0.6825523188 0.8776362569 0.9766253985
0.662513512 0.8763476403 0.4843280957
0.6726157508 0.6285134743 0.2278135127
0.6825155031 0.6272964475 0.9760271427
0.6626239592 0.6261106599 0.4797141632
0.6726157508 0.6285134743 0.7278126682
0.6724648063 0.8781959591 0.2307145929
0.6825155031 0.6272964475 0.4760243057
0.6825523188 0.8776362569 0.4766234818
0.6626239592 0.6261106599 0.9797179206
0.7025653546 0.8769073425 0.4742755581
0.6926140603 0.8786320061 0.7267468525
0.6925809262 0.6280377275 0.2230937349
0.7025653546 0.8769073425 0.9742783951
0.70248436 0.6287659911 0.4733063838
0.6925809262 0.6280377275 0.7230938108
0.70248436 0.6287659911 0.973302778
0.6926140603 0.8786320061 0.2267467766
0.7126381409 0.8760873137 0.2244402706
0.722607843 0.8766795567 0.4707274412
0.7326254057 0.6268714644 0.2217011796
0.7325775452 0.8770049649 0.719484948
0.7226262509 0.6256427229 0.4694352088
0.722607843 0.8766795567 0.9707256763
0.7326254057 0.6268714644 0.7217012555
0.7226262509 0.6256427229 0.9694371254
0.7325775452 0.8770049649 0.2194848721
0.7126381409 0.8760873137 0.7244403465
0.7125829173 0.6249496033 0.2211480231
0.7125829173 0.6249496033 0.721148099
0.7426466499 0.8754690381 0.4672824084
0.7426466499 0.8754690381 0.9672834047
0.7427239629 0.6254006191 0.4679358878
0.7427239629 0.6254006191 0.9679368841
0.7626007805 0.8759701667 0.4677766597
0.7526863019 0.8754625299 0.7187256233
0.7526200336 0.6248793151 0.2165985181
0.7626007805 0.8759701667 0.9677804172
0.7626155068 0.6247849468 0.4685856856
0.7526200336 0.6248793151 0.716598594
0.7626155068 0.6247849468 0.9685811595
0.7526863019 0.8754625299 0.2187255475
0.7726404326 0.8754820544 0.2175225932
0.7826837662 0.8757944463 0.4665709443
0.7726404326 0.8754820544 0.7175226691
0.7725373485 0.6260976436 0.216612324
0.7826837662 0.8757944463 0.9665747017
0.7825843637 0.6266150427 0.465536422
0.7725373485 0.6260976436 0.7166123999
0.7825843637 0.6266150427 0.9655346571
0.7926313789 0.6274682631 0.2151774306
0.7926313789 0.6274682631 0.7151775065
0.7926240158 0.8779030917 0.2188166664
0.8026857573 0.8746945665 0.4689934199
0.8127327725 0.877955157 0.718327093
0.8127290909 0.6285030613 0.2135308467
0.8026857573 0.8746945665 0.9689953366
0.8026783941 0.6238894233 0.4655290589
0.8127290909 0.6285030613 0.7135300022
0.8026783941 0.6238894233 0.9655254532
0.8127327725 0.877955157 0.2183270171
0.7926240158 0.8779030917 0.7188167423
0.8226582958 0.8740502582 0.4659312708
0.8326243164 0.6257403453 0.2137167662
0.8326095901 0.8747010746 0.7165636191
0.8226582958 0.8740502582 0.9659304263
0.8227319272 0.62575206 0.4619892255
0.8326243164 0.6257403453 0.713716842
0.8227319272 0.62575206 0.9619911422
0.8326095901 0.8747010746 0.2165635432
0.8526852126 0.8767641628 0.2189989043
0.8427081473 0.8754234809 0.464654685
0.8427081473 0.8754234809 0.9646510793
0.8426713316 0.6241256697 0.4623196468
0.8426713316 0.6241256697 0.9623224838
0.8626033728 0.8760742974 0.4713091299
0.8525600391 0.6246853718 0.2152492213
0.8526852126 0.8767641628 0.7189989802
0.8626033728 0.8760742974 0.9713055242
0.8626917305 0.6260227997 0.467679098
0.8525600391 0.6246853718 0.7152492972
0.8626917305 0.6260227997 0.9676791739
0.8825832744 0.8759246096 0.4768268888
0.87270193 0.6256166902 0.2196845975
0.8926486975 0.624184894 0.2265811058
0.8726319801 0.8758139708 0.7241458205
0.8925677029 0.8764257383 0.7287376636
0.8825832744 0.8759246096 0.9768278851
0.8825943191 0.627404483 0.474422821
0.87270193 0.6256166902 0.7196846733
0.8926486975 0.624184894 0.7265811817
0.8825943191 0.627404483 0.9744256581
0.8726319801 0.8758139708 0.2241457447
0.8925677029 0.8764257383 0.2287375877
0.9026883496 0.8739591439 0.4783262098
0.9128126778 0.6234143273 0.2296883542
0.9126801412 0.8722735292 0.7286898031
0.9026883496 0.8739591439 0.9783281264
0.9027951152 0.6236271443 0.4777472823
0.9128126778 0.6234143273 0.7296884301
0.9027951152 0.6236271443 0.9777482786
0.9126801412 0.8722735292 0.2286897273
0.9426076555 0.8811701903 0.4830708382
0.9328367584 0.628408042 0.2335135095
0.9227934247 0.8750850563 0.4803133393
0.9327042217 0.8786320061 0.7318384692
0.9227934247 0.8750850563 0.9803161764
0.9228412852 0.6259121609 0.4819341522
0.9228412852 0.6259121609 0.9819360689
0.9426076555 0.8811701903 0.9830681529
0.9428948183 0.6296478474 0.482834297
0.9328367584 0.628408042 0.7335135854
0.9428948183 0.6296478474 0.9828380545
0.9327042217 0.8786320061 0.2318383934
0.9626133282 0.8813589271 0.4871343754
0.9526657155 0.6309377657 0.2308848657
0.9726713881 0.6282720214 0.235086462
0.9526730786 0.879614739 0.7357934
0.972542533 0.8772783079 0.7348941756
0.9626133282 0.8813589271 0.987136292
0.9626685518 0.6308538103 0.4854408514
0.9526657155 0.6309377657 0.7308840212
0.9726713881 0.6282720214 0.7350865378
0.9626685518 0.6308544612 0.985442768
0.9526730786 0.879614739 0.2357933241
0.972542533 0.8772783079 0.2348940997
0.9826374087 0.8787361367 0.4872254943
0.992640245 0.6272899394 0.2418071751
0.9926770608 0.8766730485 0.7393645267
0.9826374087 0.8787361367 0.9872283314
0.9826153193 0.6290419373 0.4874012895
0.992640245 0.6272899394 0.741807251
0.9826153193 0.6290419373 0.9874032061
0.9926770608 0.8766730485 0.2393644508
0.0176871292 0.3616221004 0.1252724752
0.0074678531 0.1261241607 0.1220557
0.0174164967 0.3790281869 0.3755311437
0.0174164967 0.3790281869 0.8755312196
0.0074940659 0.1154325477 0.3720704642
0.0218857434 0.500230389 0.5113370423
0.0020975413 0.5013419836 0.5047387415
0.0176871292 0.3616221004 0.6252725511
0.0122527211 0.2522517418 0.2648170121
0.0218857434 0.500230389 1.0113334366
0.0074994779 0.3745551253 0.1242876542
0.0020975413 0.5013419836 0.0047386656
0.0075871361 0.3890175689 0.3717069088
0.0128833011 0.5016485181 0.2312824757
0.0128833011 0.5016485181 0.7312825516
0.0074994779 0.3745551253 0.62428773
0.0075871361 0.3890175689 0.8717060643
0.0175503219 0.1211317475 0.3725352629
0.0174968655 0.1359579975 0.6220741837
0.0227889807 0.2495215667 0.480920799
0.0029191949 0.2522660598 0.484869287
0.0174968655 0.1359579975 0.1220741078
0.0227889807 0.2495215667 0.9809236361
0.0029191949 0.2522660598 0.9848721241
0.0074678531 0.1261241607 0.6220557759
0.0074940659 0.1154325477 0.8720705401
0.0122527211 0.2522517418 0.764817088
0.0175503219 0.1211317475 0.8725353388
0.0376259813 0.3634281161 0.1266411003
0.0474992262 0.1251342688 0.1252669528
0.0419614027 -0.0016587722 0.0172689944
0.0374260718 0.3777916357 0.3755569147
0.0374260718 0.3777916357 0.8755569906
0.0474811865 0.111974109 0.3740879667
0.0376259813 0.3634281161 0.6266402558
0.0275189196 0.1272461682 0.1223511463
0.0274702124 0.1133382203 0.3729816538
0.0476453847 0.3752462924 0.1180915653
0.0320789539 0.2499842972 0.263371074
0.0330770286 0.5006202281 0.2388959706
0.0472820134 0.3879691036 0.3688076693
0.0419614027 -0.0016587722 0.5172689783
0.0275495503 0.3743410067 0.1211454308
0.0330770286 0.5006202281 0.7388960464
0.0274290156 0.3883667525 0.3702885824
0.0476453847 0.3752462924 0.6180916411
0.0472820134 0.3879691036 0.8688077452
0.0275495503 0.3743410067 0.6211445863
0.0274290156 0.3883667525 0.8702886583
0.0374257037 0.1244977703 0.3793194833
0.0375707577 0.1354503607 0.6267773944
0.0429977658 0.2497747343 0.4873009666
0.0375707577 0.1354503607 0.1267782389
0.0429977658 0.2497747343 0.9873019629
0.0474992262 0.1251342688 0.6252670287
0.0474811865 0.111974109 0.8740880426
0.0275189196 0.1272461682 0.6223503018
0.0274702124 0.1133382203 0.8729817296
0.0320789539 0.2499842972 0.7633711498
0.0374257037 0.1244971195 0.8793195591
0.0520058408 0.2499537088 0.7610103406
0.0520058408 0.2499537088 0.2610111851
0.0574457345 0.1372101684 0.1204993146
0.0632004027 0.2511453538 0.9915541807
0.0675001128 0.1218574079 0.6229034582
0.0674772871 0.110317781 0.8717033031
0.0720380208 0.2472957744 0.7606007655
0.0576077237 0.1302412256 0.8727387458
0.0774006014 0.3602013681 0.1262398087
0.0617958822 0.5009586527 0.5086200408
0.0617958822 0.5009586527 0.0086196888
0.0774333674 0.3705259206 0.3774566069
0.0774333674 0.3705259206 0.8774566827
0.0774006014 0.3602013681 0.6262398846
0.0775430783 0.1259614565 0.3748104756
0.0774893273 0.1371275147 0.6264405304
0.0774893273 0.1371275147 0.1264404545
0.0731358662 0.4990517604 0.2430994076
0.0731358662 0.4990517604 0.7430994835
0.0775430783 0.1259614565 0.8748105515
0.057601465 0.3627187262 0.1269245815
0.0675001128 0.1218574079 0.1229033824
0.0574155456 0.3701920517 0.3743769703
0.0574155456 0.3701920517 0.8743770461
0.0674772871 0.110317781 0.3717032272
0.057601465 0.3627187262 0.6269246574
0.052920712 6.2461741454e-04 0.7436554011
0.0720380208 0.2472957744 0.2606006896
0.052920712 6.2461741454e-04 0.2436553252
0.0675350878 0.3808244404 0.1242121819
0.0673657354 0.3887572424 0.3713525573
0.0675350878 0.3808244404 0.6242122578
0.0673657354 0.3887572424 0.8713526332
0.0576077237 0.1302412256 0.3727386699
0.0574457345 0.1372101684 0.6204993905
0.0632004027 0.2511453538 0.4915531845
0.0975056766 0.3612107844 0.128069551
0.0874792782 0.1239894826 0.1320824665
0.0975664225 0.3741353487 0.3765638252
0.0975664225 0.3741359995 0.876563901
0.0875212481 0.1158022114 0.3804101495
0.0975056766 0.3612107844 0.6280696268
0.0919056345 0.2518130915 0.2682279903
0.0874428306 0.3786383479 0.129793448
0.0875672678 0.3863811114 0.3826347406
0.0973300655 0.1270086202 0.3843899309
0.0974254182 0.1406243516 0.6321386864
0.0874428306 0.3786383479 0.6297935238
0.0875672678 0.3863811114 0.8826348164
0.0830867923 0.2496139826 0.4920327095
0.0930546537 0.5011460878 0.248098985
0.1019265105 0.4998151681 0.517020472
0.1019265105 0.4998151681 0.0170203041
0.0974254182 0.1406243516 0.1321386105
0.0830867923 0.2496139826 0.9920327853
0.0874792782 0.1239894826 0.6320825424
0.0875212481 0.1158022114 0.8804102254
0.0930546537 0.5011460878 0.7480990608
0.0919056345 0.2518130915 0.7682280662
0.0973300655 0.1270086202 0.8843900068
0.1031186042 0.2496894773 0.4971629827
0.1031186042 0.2496888265 0.997159377
0.0819086887 -5.6006380641e-04 0.5153260276
0.0819086887 -5.6006380641e-04 0.0153259518
0.1271843165 0.3760507016 0.1427535085
0.127828592 0.3853345985 0.3897272927
0.1275999662 0.1246747924 0.1297704381
0.1176438859 0.3736980001 0.3773452392
0.1176438859 0.3736980001 0.8773453151
0.1272623659 0.1136044042 0.3800880118
0.1174436083 0.3642800349 0.6321699798
0.107478324 0.1249858826 0.1302923012
0.1072077283 0.1144804032 0.3789706541
0.1074297272 0.37543568 0.1306770257
0.1120644606 0.250286276 0.2707618336
0.1075898757 0.3881708567 0.3800594796
0.117300395 0.1249631041 0.3869486248
0.1175293889 0.1369426828 0.6355459831
0.1271843165 0.3760507016 0.6427535844
0.1229832725 0.2511342899 0.4966549255
0.127828592 0.3853345985 0.8897273686
0.1074297272 0.37543568 0.6306771016
0.1220787098 0.4998809006 0.5168713683
0.1220787098 0.4998809006 0.0168711083
0.1075898757 0.3881708567 0.8800586351
0.1130238788 0.500365108 0.2434178637
0.1130238788 0.500365108 0.7434179396
0.1175293889 0.1369426828 0.1355459072
0.1229832725 0.2511342899 0.9966531606
0.1275999662 0.1246747924 0.629770514
0.1272623659 0.1136044042 0.8800880877
0.107478324 0.1249858826 0.6302923771
0.1072077283 0.1144804032 0.8789698096
0.1120644606 0.250286276 0.7707619095
0.117300395 0.1249631041 0.8869487007
0.1174436083 0.3642800349 0.1321699039
0.137173531 0.3685715187 0.131655404
0.1472374815 0.373049136 0.1433305952
0.1477724142 0.389432139 0.3951870668
0.1475853902 0.1293177171 0.138628305
0.1377971897 0.3767919816 0.3802693293
0.1377971897 0.3767919816 0.8802694052
0.1474675799 0.1169658713 0.388100037
0.137173531 0.3685715187 0.6316554798
0.1520474578 0.2528719699 0.275696063
0.1373230029 0.1256744465 0.3892201559
0.1375619371 0.1389042437 0.6388741259
0.1472374815 0.373049136 0.6433306711
0.1428100207 0.2525608796 0.5017741541
0.1477724142 0.389432139 0.8951871427
0.1320863322 0.2516367202 0.2724047359
0.1330663672 0.5027887486 0.7460935234
0.1320863322 0.2516367202 0.7724048118
0.1375619371 0.1389042437 0.13887405
0.1330663672 0.5027887486 0.2460934476
0.1428100207 0.2525608796 1.0017705484
0.1475853902 0.1293177171 0.6386283808
0.1474675799 0.1169658713 0.8880991925
0.1526644896 0.5023780834 0.252552769
0.1520474578 0.2528719699 0.7756961389
0.142151019 0.001493913 0.5248557817
0.1526644896 0.5023780834 0.7525528449
0.142151019 0.001493913 0.0248556138
0.1373230029 0.1256744465 0.8892202318
0.1577115593 0.3813164577 0.385232091
0.1577115593 0.3813164577 0.8852321668
0.1578683943 0.1350754904 0.6495322824
0.1578683943 0.1350754904 0.1495322065
0.1574310233 0.367088308 0.6368888372
0.1573157901 0.1262061635 0.3981626989
0.1573157901 0.1262055127 0.8981627748
0.1574310233 0.367088308 0.1368887613
0.1830514644 0.2537173805 0.5075689514
0.1830514644 0.2537173805 0.0075691516
0.167528108 0.378747685 0.1423936347
0.1677545248 0.3877712554 0.3936638156
0.1820500763 0.5029371347 0.530715927
0.1677162364 0.1270112235 0.1360990637
0.1776561178 0.3781827763 0.3897346559
0.1776561178 0.3781827763 0.8897347317
0.1728980517 0.5019888951 0.252725803
0.1673495516 0.1197240315 0.386946784
0.1775828545 0.3664902076 0.6425428143
0.1719761856 0.25260904 0.2756113868
0.1773667461 0.1280421168 0.3936021493
0.1777349035 0.1406900841 0.6472377414
0.167528108 0.378747685 0.6423927902
0.1677545248 0.3877712554 0.8936638915
0.1629382898 0.2510692083 0.5027184778
0.1777349035 0.1406900841 0.147238586
0.1677162364 0.1270112235 0.6360991396
0.1820500763 0.5029371347 0.0307158511
0.1673495516 0.1197240315 0.8869468599
0.1621570598 0.5010029082 0.0284456086
0.1629382898 0.2510692083 0.0027188621
0.1621570598 0.5010029082 0.5284453163
0.1719761856 0.25260904 0.7756105423
0.1728980517 0.5019888951 0.7527258788
0.1773667461 0.1280421168 0.8936022251
0.1775828545 0.3664902076 0.1425427384
0.1876055713 0.3918043651 0.3946164229
0.1875952629 0.1283421432 0.1413830426
0.1972755934 0.3697110984 0.6370830402
0.1976842481 0.378581076 0.8864019869
0.1874958604 0.1183416973 0.3922362853
0.1920356092 0.2553632953 0.2784811737
0.1976842481 0.378581076 0.3864019111
0.1972722799 0.1291829981 0.401208281
0.1977243772 0.1374177789 0.6493334774
0.1873971942 0.3792110664 0.646874186
0.2029500032 0.2537206346 0.5063549524
0.1876055713 0.3918043651 0.8946164987
0.1977243772 0.1374177789 0.1493334015
0.2029500032 0.2537206346 0.0063548765
0.1875952629 0.1283421432 0.6413831185
0.1874958604 0.1183416973 0.8922363612
0.1920356092 0.2553632953 0.7784812496
0.1972722799 0.1291829981 0.9012074364
0.1972755934 0.3697110984 0.1370829643
0.2076730944 0.1290899313 0.1373848534
0.207201853 0.1168272474 0.3844166223
0.2075026375 0.3766299283 0.148707534
0.2077389946 0.3883511329 0.400188485
0.2075026375 0.3766299283 0.6487076098
0.2077389946 0.3883511329 0.9001885609
0.2076730944 0.1290899313 0.6373849292
0.207201853 0.1168272474 0.8844166982
0.1873971942 0.3792110664 0.1468741101
0.1930248481 0.5045934626 0.2568436434
0.2021187038 0.50205658 0.5309064485
0.2021187038 0.50205658 0.0309062805
0.1930248481 0.5045934626 0.7568437193
0.2130573963 0.5033894522 0.2609798917
0.2330575466 0.5023058428 0.2599324839
0.2330575466 0.5023058428 0.7599325598
0.2276091853 0.1262758009 0.1422564961
0.2274133256 0.1161419376 0.3932726484
0.2130573963 0.5033894522 0.7609799676
0.2274162709 0.378808211 0.1482905957
0.2120718389 0.2523558724 0.2792064438
0.2276393742 0.3923549558 0.3978359593
0.2177893232 0.3744425341 0.8880154367
0.2177893232 0.3744425341 0.3880153608
0.2172956242 0.3662891054 0.6371934874
0.21742632 0.1295917108 0.3988557552
0.2176486871 0.1376032616 0.6465916252
0.2274162709 0.378808211 0.6482906716
0.2230572873 0.2535820107 0.5117208464
0.2276393742 0.3923549558 0.8978360351
0.2176486871 0.1376032616 0.1465915493
0.2230572873 0.2535820107 0.0117212307
0.2276091853 0.1262758009 0.6422565719
0.2274133256 0.1161419376 0.8932727243
0.2120718389 0.2523558724 0.7792055992
0.21742632 0.1295917108 0.8988558311
0.2172956242 0.3662891054 0.1371934115
0.2320329645 0.2511700848 0.2857384763
0.2320329645 0.2511700848 0.7857385522
0.221833164 0.5034122308 0.027356507
0.221833164 0.5034122308 0.5273564908
0.2473954362 0.380198355 0.6529865191
0.242957667 0.2519647317 0.5130940735
0.2474175256 0.388251558 0.8991015762
0.237610549 0.1380738019 0.1519436374
0.242957667 0.2519647317 0.0130936294
0.2475327589 0.1249858826 0.6444544716
0.247243019 0.1117834197 0.894376276
0.2517444794 0.2499725825 0.7834983144
0.2372920929 0.1280173858 0.9023229533
0.2374400922 0.361953366 0.1468557023
0.2574869984 0.3705063961 0.897258028
0.2574869984 0.3705063961 0.3972579522
0.2573474668 0.1295318357 0.4017568355
0.257305865 0.3607330851 0.646425034
0.2618253651 0.4978152091 0.0342509904
0.2618253651 0.4978152091 0.5342511584
0.2529859062 0.4999941427 0.2632587859
0.2529859062 0.4999941427 0.7632588618
0.2575024611 0.1346290303 0.6514743126
0.2630597969 0.2502075273 0.516774727
0.2575024611 0.1346290303 0.1514742367
0.2630597969 0.2502075273 0.0167752033
0.2573474668 0.1295318357 0.9017569114
0.257305865 0.3607330851 0.1464258785
0.2475327589 0.1249858826 0.1444543957
0.247243019 0.1117834197 0.3943762002
0.2517444794 0.2499725825 0.2834991589
0.2417051955 0.5020826127 0.0348632362
0.2473954362 0.380198355 0.1529864432
0.2474175256 0.388251558 0.3991015003
0.2376635637 0.3760585114 0.8948870944
0.2417051955 0.5020826127 0.53486322
0.2376635637 0.3760585114 0.3948870186
0.2374400922 0.361953366 0.6468557781
0.2372920929 0.1280173858 0.4023228775
0.237610549 0.1380738019 0.6519437133
0.2676146401 0.1235586421 0.1454787936
0.2672895571 0.110623014 0.3947581635
0.2719154548 0.2511642275 0.2893059214
0.2673249003 0.378581076 0.1543440236
0.2675553668 0.3859229366 0.4050315955
0.2773940049 0.1257902918 0.4038203577
0.2673249003 0.378581076 0.6543440995
0.2776472972 0.3768980646 0.3972349423
0.2773476171 0.3621479602 0.6487039282
0.2775784518 0.1361454327 0.6567021476
0.2730265538 0.5007419308 0.2707774803
0.2675553668 0.3859229366 0.9050316714
0.2776472972 0.3768980646 0.8972350182
0.2775784518 0.1361454327 0.1567020717
0.2676146401 0.1235586421 0.6454788695
0.2672895571 0.110623014 0.8947582393
0.2719154548 0.2511642275 0.7893059973
0.2773940049 0.1257902918 0.9038204335
0.2773476171 0.3621479602 0.1487038524
0.2875330595 0.1263988052 0.1525152018
0.2873140058 0.1137976967 0.4021608882
0.2873320455 0.3755645417 0.158094627
0.287658233 0.3869206383 0.4085401354
0.2873320455 0.3755645417 0.6580947029
0.287658233 0.3869206383 0.9085402113
0.2828762366 0.2516848806 0.5157217968
0.2828762366 0.2516848806 0.0157215369
0.2875330595 0.1263988052 0.6525152776
0.2873140058 0.1137976967 0.9021609641
0.2730265538 0.5007419308 0.7707775562
0.2820368378 0.5019303217 0.0423122567
0.2820368378 0.5019303217 0.5423119644
0.3131465055 0.4989411216 0.7805401698
0.2930911316 0.5002134678 0.2755543224
0.3017332582 0.5001444813 0.5460165482
0.2930911316 0.5002134678 0.7755543983
0.3017332582 0.5001444813 0.0460161962
0.3117526616 0.249527424 0.7952563411
0.3075880652 0.1202934959 0.1576003757
0.3072037089 0.1126776416 0.4061793261
0.307519588 0.3792533694 0.1604489936
0.2919682516 0.2502921334 0.2907583023
0.3073778474 0.3882893053 0.4077495174
0.2972895985 0.1284859736 0.4106938562
0.3131465055 0.4989411216 0.2805400939
0.2975303735 0.1373051876 0.6596713369
0.307519588 0.3792533694 0.6604490694
0.3029860978 0.2503357381 0.5257016233
0.3073778474 0.3882893053 0.9077486729
0.2975852289 0.3687426834 0.40377894
0.2975071795 0.3625761974 0.6563855322
0.2975852289 0.3687426834 0.9037790158
0.2975303735 0.1373051876 0.1596712611
0.3029860978 0.2503357381 0.0257015475
0.3075880652 0.1202934959 0.6576004516
0.3072037089 0.1126776416 0.906179402
0.2919682516 0.2502921334 0.7907583782
0.2972895985 0.1284859736 0.910693932
0.2975071795 0.3625761974 0.1563863767
0.3117526616 0.249527424 0.2952562652
0.317241152 0.1332597124 0.4142557789
0.3174705141 0.136034143 0.6639585298
0.3273356596 0.386325792 0.6624039852
0.3231158395 0.2513542659 0.537995319
0.3274921265 0.382003069 0.9116824346
0.3173677982 0.3696245398 0.4145383397
0.3173549127 0.3609283301 0.6626386855
0.3173677982 0.3696245398 0.9145356544
0.3174705141 0.136034143 0.1639584539
0.3231158395 0.2513542659 0.0379950591
0.3275385143 0.116158208 0.656733441
0.3273286646 0.1192242044 0.9096465243
0.3317215186 0.2504730604 0.7772055842
0.317241152 0.1332597124 0.9142595364
0.3173549127 0.3609283301 0.16263953
0.3372832723 0.1353110859 0.4159759943
0.3376131413 0.1296815235 0.6665024973
0.3374268537 0.3635309452 0.4084352106
0.3373823066 0.3702662448 0.6614210049
0.3374268537 0.3635309452 0.9084352864
0.3376131413 0.1296815235 0.1665024215
0.3372832723 0.1353110859 0.9159714682
0.3373823066 0.3702662448 0.1614218495
0.333079283 0.4995203483 0.7896677119
0.3273356596 0.386325792 0.1624039093
0.333079283 0.4995203483 0.289667636
0.3275385143 0.116158208 0.1567342855
0.3418289116 0.4986215707 0.526767439
0.3273286646 0.1192242044 0.4096464484
0.3317215186 0.2504730604 0.2772064287
0.3274921265 0.382003069 0.4116823588
0.3418289116 0.4986215707 0.0267673631
0.3217529209 0.5006527689 0.5370648012
0.3217529209 0.5006527689 0.0370644492
0.3618283256 0.4956811819 0.5254540375
0.3618283256 0.4956811819 0.0254543298
0.3430526668 0.2487711753 0.5430059411
0.3430526668 0.2487711753 0.0430057732
0.3474031827 0.3850677638 0.1608751357
0.347322188 0.3729163695 0.4093445593
0.3474223268 0.1096819333 0.1551742185
0.3473339691 0.1180013203 0.4058949246
0.3518210714 0.2463605511 0.2730646581
0.3571935922 0.1327989344 0.4133151368
0.3575079986 0.1216921005 0.6628779878
0.3474031827 0.3850677638 0.6608752116
0.347322188 0.3729163695 0.9093446352
0.3574041782 0.359605871 0.407126411
0.357399024 0.3721301832 0.6590896483
0.3574041782 0.359605871 0.9071264869
0.3474223268 0.1096819333 0.6551742944
0.3575079986 0.1216921005 0.162877912
0.3473339691 0.1180013203 0.9058950004
0.3518210714 0.2463605511 0.7730647339
0.3571935922 0.1327989344 0.9133115311
0.357399024 0.3721301832 0.1590895724
0.36747586 0.3777597456 0.1559832444
0.3673654127 0.3710381131 0.4065005435
0.3674869047 0.1081024018 0.1548171059
0.3671371552 0.1227633444 0.4039013523
0.36747586 0.3777597456 0.6559833203
0.3673654127 0.3710381131 0.9065006193
0.3627855348 0.2465538436 0.5412378653
0.3674869047 0.1081024018 0.6548171817
0.3671371552 0.1227633444 0.9039014282
0.3627855348 0.2465538436 0.0412377894
0.3529682498 0.4963912227 0.2981536639
0.3529682498 0.4963912227 0.7981537398
0.37283255 0.4965701972 0.2965392938
0.37283255 0.4965701972 0.7965393696
0.3929008094 0.4977384128 0.7857808903
0.3929008094 0.4977384128 0.2857808144
0.3770516337 0.1346400942 0.414833786
0.3818082272 0.4971403124 0.5192791176
0.3719416091 0.24620826 0.272093643
0.3818082272 0.4971403124 0.0192793179
0.391858924 0.2450927606 0.7670803355
0.387348996 0.3839769954 0.1538129566
0.3829384704 0.2467412787 0.0437612322
0.3719416091 0.24620826 0.7720937188
0.3872827276 0.1083262826 0.1585198488
0.3774713331 0.1205141227 0.6635820888
0.3872827276 0.3730224526 0.4043523451
0.3871685988 0.1186527876 0.4056951992
0.3829384704 0.2467412787 0.5437615842
0.391858924 0.2450927606 0.2670811801
0.3774971042 0.3609843003 0.400892586
0.3773424781 0.3701419389 0.6535948992
0.387348996 0.3839769954 0.6538130325
0.3770516337 0.1346400942 0.9148301803
0.3872827276 0.3730224526 0.904352421
0.3871685988 0.1186527876 0.9056952751
0.3774971042 0.3609843003 0.9008926619
0.3773424781 0.3701419389 0.1535948233
0.3774713331 0.1205141227 0.163582013
0.3872827276 0.1083262826 0.6585199247
0.4072810371 0.3878168126 0.1488419114
0.4073104897 0.3700143788 0.4026394928
0.4070270085 0.12605192 0.3943467476
0.3971935246 0.1320257644 0.4071549432
0.3973518323 0.1251193 0.6560422255
0.4072810371 0.3878168126 0.6488419873
0.4027600644 0.2476257383 0.5438057631
0.4073104897 0.3700143788 0.9026395687
0.397337106 0.3608580419 0.3997384126
0.3971677536 0.3717930602 0.6496620579
0.397337106 0.3608580419 0.8997384885
0.4074356632 0.1106763809 0.6449293946
0.3973518323 0.1251193 0.1560421496
0.4070270085 0.12605192 0.8943468235
0.4027600644 0.2476257383 0.0438054111
0.4074356632 0.1106763809 0.1449293187
0.3971935246 0.1320257644 0.9071550191
0.3971677536 0.3717930602 0.149661982
0.4017549947 0.4978132567 0.5146127227
0.4116952443 0.2479888939 0.2606393461
0.4017549947 0.4978132567 0.0146126468
0.417184471 0.3597080492 0.3974401901
0.4172028788 0.3733999261 0.6448594447
0.4169672581 0.135700925 0.4059059693
0.4175526284 0.1232631715 0.6569635393
0.4124978274 -0.0034057002 0.7867408607
0.4124978274 -0.0034056872 0.2867417052
0.417184471 0.3597080492 0.8974402659
0.4175526284 0.1232631715 0.1569634635
0.4116952443 0.2479888939 0.760639422
0.4169672581 0.135700925 0.9059060452
0.4172028788 0.3733999261 0.1448593688
0.4418841504 -0.0028854571 -7.5694866171e-04
0.4418841504 -0.0028854441 0.499243072
0.4427714097 0.2462713892 0.5248465778
0.4372011884 0.3594893749 0.8924940714
0.4373005909 0.1188909864 0.1440825567
0.4427714097 0.2462713892 0.0248468701
0.43713492 0.1360764461 0.8916629561
0.4372232778 0.3747340999 0.1414760024
0.4272204415 0.3833899589 0.1475367934
0.4271762626 0.3712470252 0.3948557252
0.4272204415 0.3833899589 0.6475368693
0.4228540948 0.2479322729 0.5306110021
0.4271762626 0.3712470252 0.8948558011
0.4273566597 0.1087597264 0.6446210628
0.4270731785 0.1221287983 0.8928622288
0.4228540948 0.2479322729 0.0306109263
0.4317819116 0.2476712955 0.7523770497
0.4217312148 -0.0017554835 0.0093575682
0.4273566597 0.1087597264 0.1446209869
0.4270731785 0.1221287983 0.3928621529
0.4317819116 0.2476712955 0.2523769738
0.4372011884 0.3594893749 0.3924939955
0.4217312148 -0.0017554835 0.5093572759
0.4372232778 0.3747340999 0.6414760783
0.43713492 0.1360764461 0.3916628802
0.4373005909 0.1188909864 0.6440826326
0.432599221 -0.0032152388 0.784521792
0.432599221 -0.0032152323 0.2845217161
0.4673385524 0.1080067318 0.1278955966
0.4670808423 0.1182004701 0.380794874
0.4715834072 0.2472521697 0.242646574
0.4472408404 0.3864624635 0.1366881155
0.4571884531 0.3573065364 0.3853894782
0.4572363136 0.3679630053 0.6337180816
0.457206861 0.1386217893 0.3813121351
0.457206861 0.1232032963 0.6338165637
0.4472408404 0.3864624635 0.6366881914
0.4571884531 0.3573065364 0.8853895541
0.457206861 0.1232032963 0.1338164879
0.4472261141 0.3721672797 0.3878625755
0.4472261141 0.3721672797 0.887861731
0.4473107903 0.1102943516 0.6341690744
0.4473107903 0.1102943516 0.1341689986
0.4515409188 0.2479648137 0.7456314859
0.4515409188 0.2479648137 0.24563141
0.457206861 0.1386224402 0.881312211
0.4572363136 0.3679630053 0.1337180058
0.467290692 0.3866498986 0.132462589
0.4673643234 0.3729931658 0.3828086949
0.467290692 0.3866498986 0.6324626649
0.4729087738 -0.0037870592 0.2625786152
0.4528994195 -0.0022184548 0.7705861143
0.4528994195 -0.0022184548 0.2705860384
0.4729087738 -0.0037870657 0.762578691
0.4471009406 0.1215925256 0.8862694503
0.4471009406 0.1215925256 0.3862693744
0.4673643234 0.3729931658 0.8828078504
0.4628433507 0.2484138771 0.518610912
0.4673385524 0.1080067318 0.6278956725
0.4670808423 0.1182004701 0.8807940295
0.4715834072 0.2472521697 0.7426466499
0.4628433507 0.2484138771 0.0186107441
0.4615916155 0.4960287179 0.4946705572
0.4615916155 0.4960287179 -0.0053294359
0.4817040539 -0.0048422735 0.4914482596
0.4930359384 -0.0049164145 0.7595791287
0.4930359384 -0.0049164275 0.2595790528
0.4817040539 -0.00484228 0.9914437335
0.4973396983 0.1341109804 0.8695845573
0.4972071616 0.3685806301 0.118107212
0.477253031 0.3606198431 0.3763042742
0.4772198968 0.3684420062 0.6250277264
0.4771978074 0.1330501495 0.3791979913
0.4773450703 0.1250119153 0.6264561771
0.4827128051 0.2453198956 0.5108750048
0.477253031 0.3606198431 0.8763043501
0.4773450703 0.1250119153 0.1264561012
0.4827128051 0.2453198956 0.0108747448
0.4771978074 0.1330501495 0.8791980672
0.4772198968 0.3684420062 0.1250276505
0.4873074094 0.3816835181 0.1224882849
0.4871822358 0.3737962733 0.3701256728
0.4973396983 0.1341109804 0.3695844814
0.4873074094 0.3816835181 0.6224883608
0.4973176088 0.1247301118 0.6211105318
0.4871822358 0.3737962733 0.8701257487
0.4972734299 0.3560836523 0.3693534627
0.4972071616 0.3685806301 0.6181072878
0.4972734299 0.3560836523 0.8693535385
0.4874509907 0.1093753988 0.619574395
0.4973176088 0.1247301118 0.1211113763
0.4872816383 0.1173485514 0.868758044
0.4917878848 0.2463319152 0.7407036992
0.4874509907 0.1093753988 0.1195743192
0.4872816383 0.1173485514 0.3687579681
0.4917878848 0.2463319152 0.2407036234
0.5073204452 0.3836183955 0.1198458352
0.5171576107 0.1189371944 0.1137160147
0.5174042761 0.1308822799 0.3679645889
0.5228603687 0.2446990167 0.5054032655
0.5028399697 0.2457019248 0.5116306478
0.5074124845 0.1068671521 0.1171546047
0.511771468 0.2433778592 0.734691689
0.5072431321 0.3694527242 0.8701993801
0.5028399697 0.2457019248 0.0116303879
0.511771468 0.2433778592 0.2346916131
0.5072320874 0.1206573023 0.3696590333
0.5074124845 0.1068671521 0.6171546806
0.521855299 0.4950075869 0.4809833858
0.5017649501 0.4955646858 0.9889678751
0.5017649501 0.4955646858 0.4889677992
0.521855299 0.4950075869 0.9809788597
0.5173748235 0.3728942417 0.122137615
0.5172091527 0.3590500738 0.3714271092
0.5173748235 0.3728942417 0.6221376909
0.5172091527 0.3590500738 0.871427185
0.5228603687 0.2446990167 0.0054033737
0.5127102694 -0.005400277 0.7563853633
0.5171576107 0.1189371944 0.6137160905
0.5174042761 0.1308822799 0.8679646648
0.5127102694 -0.0054002575 0.2563852874
0.5072320874 0.1206573023 0.8696591092
0.5072431321 0.3694527242 0.3701993043
0.5073204452 0.3836183955 0.6198459111
0.5418167927 -0.004629476 0.4798936399
0.5274549729 0.1224808901 0.8699471923
0.5273408441 0.3681654092 0.3683879699
0.527333481 0.3800838113 0.6196756383
0.527333481 0.3800838113 0.1196755624
0.537174328 0.3698158798 0.1154481952
0.5375130328 0.3551842239 0.3626373514
0.537174328 0.3698158798 0.6154482711
0.5375130328 0.3551842239 0.8626374273
0.5271678101 0.1086575482 0.1211665999
0.5370675624 0.1171663228 0.6138688759
0.5372921384 0.1301605244 0.8644367966
0.5318102748 0.2457253542 0.7265084706
0.5273408441 0.3681654092 0.8683880458
0.5370675624 0.1171663228 0.1138688
0.5372921384 0.1301605244 0.3644367207
0.5318102748 0.2457253542 0.2265083947
0.5274549729 0.1224808901 0.3699471165
0.5271678101 0.1086575482 0.6211666758
0.547431193 0.12051998 0.8691851065
0.5473686062 0.3704790618 0.3709135296
0.547309701 0.3821117554 0.6198910104
0.547309701 0.3821117554 0.1198909345
0.5471698012 0.1089471616 0.1218191589
0.5427040521 0.2432873957 0.0050599749
0.5473686062 0.3704790618 0.8709136055
0.547431193 0.12051998 0.3691850307
0.5471698012 0.1089471616 0.6218192347
0.5427040521 0.2432873957 0.5050599588
0.5518049028 0.2465610026 0.7250570101
0.5518049028 0.2465610026 0.2250569342
0.5325649975 -0.0042284885 0.2494611673
0.5325649975 -0.004228482 0.7494612432
0.5418167927 -0.004629489 0.9798927954
0.577343981 0.1212436879 0.113211639
0.5773807968 0.1313443596 0.3644146313
0.5718473912 0.246719151 0.2284301763
0.5674773629 0.1202368749 0.3662683037
0.5673227368 0.1054737541 0.6178817914
0.5616089341 -0.005226535 0.4846437906
0.5616089341 -0.0052265285 0.9846420257
0.5573014926 0.3691826354 0.112654801
0.5573014926 0.3691826354 0.6126548769
0.5574671635 0.356967461 0.3659793002
0.5574671635 0.356967461 0.865979376
0.5629821612 0.2441399653 0.0056652257
0.5730623106 -0.0051753744 0.2522122234
0.5573051742 0.1221763079 0.6158734929
0.5574377109 0.1358532161 0.8658422374
0.5730623106 -0.0051753744 0.7522122993
0.5573051742 0.1221763079 0.115873417
0.5574377109 0.1358532161 0.3658421615
0.5629821612 0.2441399653 0.5056655777
0.5674773629 0.1202368749 0.8662683796
0.567381642 0.3717162639 0.3666916847
0.5673190553 0.3829688807 0.6188021849
0.5673190553 0.3829688807 0.118802109
0.5775722386 0.3694637881 0.119541185
0.5775722386 0.3694637881 0.6195412609
0.5529314644 -0.0048459961 0.2514851126
0.5529314644 -0.0048459961 0.7514851884
0.5773476626 0.3594360079 0.3693792337
0.5773476626 0.3594360079 0.8693793096
0.5673227368 0.1054737541 0.1178817156
0.577343981 0.1212436879 0.6132117149
0.5773807968 0.1313443596 0.8644147071
0.5718473912 0.246719151 0.7284302522
0.567381642 0.3717162639 0.8666917606
0.5875014435 0.1077451035 0.1102599372
0.5875235329 0.3723527624 0.8659517642
0.6020105263 -8.9881377922e-04 0.4746225464
0.5829326102 0.244768654 -0.0015260018
0.5874241304 0.120991822 0.3628241913
0.5977141295 0.3708090257 0.1181108935
0.5977141295 0.3708090257 0.6181109694
0.5972134355 0.3631430585 0.3704873874
0.5972134355 0.3631430585 0.8704874633
0.6030781827 0.2477005822 0.4963668424
0.597415922 0.1253796266 0.6118992338
0.5975153245 0.13258026 0.8616111886
0.5919635111 0.2462707384 0.7290763684
0.6030781827 0.2477005822 -0.0036330862
0.597415922 0.1253796266 0.1118991579
0.5975153245 0.13258026 0.3616111127
0.5919635111 0.2462707384 0.2290762925
0.5874241304 0.120991822 0.8628233468
0.5875235329 0.3723527624 0.3659516884
0.5874462199 0.3807665177 0.6158477218
0.5874462199 0.3807665177 0.115847646
0.5875014435 0.1077451035 0.610260013
0.5829326102 0.244768654 0.498473623
0.5819201774 -0.0051077545 0.982064924
0.5819201774 -0.0051077545 0.4820611665
0.6020105263 -8.9881377922e-04 0.9746189407
0.5928065915 -0.0035566116 0.2502462629
0.5928065915 -0.0035565986 0.7502463388
0.613202511 1.0702307568e-04 0.7442416918
0.6219683385 -8.6334497656e-05 0.4730772058
0.6219683385 -8.6269416009e-05 0.9730726797
0.613202511 1.0702307568e-04 0.2442416159
0.6076506975 0.125179826 0.8655108958
0.607378261 0.3765960858 0.3562755917
0.6076028371 0.3871679485 0.6075779864
0.6076028371 0.3871679485 0.1075788309
0.6076506975 0.125179826 0.3655108199
0.6074555741 0.1109126273 0.6160354821
0.6119176417 0.249289876 0.723295377
0.607378261 0.3765967366 0.8562756676
0.6074555741 0.1109126273 0.1160354062
0.6119176417 0.249289876 0.2232962215
0.6276269176 0.12421857 0.8613387521
0.6274133863 0.372067054 0.3549980856
0.6276416439 0.3919299727 0.6086520856
0.6276416439 0.3919299727 0.1086520097
0.6176977127 0.3700566819 0.1135034038
0.6176977127 0.3700566819 0.6135034796
0.6174694551 0.3623275855 0.3610625582
0.6174694551 0.3623275855 0.8610626341
0.6276269176 0.12421857 0.3613386762
0.6275790571 0.1109009126 0.6106125237
0.6232789788 0.2491401882 0.4973258924
0.6175209972 0.1271602605 0.6086309166
0.6177860705 0.1396826202 0.8572825781
0.6274133863 0.372067054 0.8549981614
0.6275790571 0.1109009126 0.1106124479
0.6232789788 0.2491401882 -0.0026737233
0.6175209972 0.1271602605 0.1086308407
0.6177860705 0.1396826202 0.3572825022
0.6376223908 0.3759374595 0.6094509872
0.6330866917 -4.5157270081e-04 0.2507138228
0.6574550294 0.1350396955 0.3592134877
0.6330866917 -4.5157270081e-04 0.7507138987
0.6421949056 6.7804944675e-04 0.467545641
0.6421949056 6.7804944675e-04 0.9675411149
0.6473270196 0.127116005 0.3526566046
0.6375045804 0.3639103712 0.860954948
0.6375045804 0.3639103712 0.3609548722
0.6475295062 0.3782420006 0.3558439272
0.6576022924 0.3696766051 0.6098421544
0.6375745303 0.1264170281 0.6098329505
0.6529855987 -2.1682319996e-04 0.2432282627
0.6473270196 0.127116005 0.8526566804
0.647643635 0.1152984795 0.6026060209
0.6518995344 0.2520896885 0.7256828776
0.647643635 0.1152984795 0.102605945
0.6476178639 0.3869356071 0.606739508
0.6529855987 -2.1682319996e-04 0.7432283385
0.6375745303 0.1264170281 0.1098328746
0.6429091309 0.2524717178 0.9944074005
0.6518995344 0.2520896885 0.2256828018
0.637508262 0.1402110832 0.3577160075
0.637508262 0.1402110832 0.8577160834
0.6574550294 0.1350396955 0.8592135636
0.6575949293 0.3652399892 0.3571186721
0.6320411247 0.249527424 0.7204053414
0.6575949293 0.3652399892 0.857118748
0.6475295062 0.3782420006 0.8558440031
0.6320411247 0.249527424 0.2204052656
0.6376223908 0.3759374595 0.1094509113
0.6476178639 0.3869356071 0.1067394321
0.6575397056 0.1314816818 0.6086106679
0.6576022924 0.3696766051 0.1098420785
0.6575397056 0.1314816818 0.108610592
0.6429091309 0.2524717178 0.4944045635
0.6817681436 0.0014528465 0.9693911058
0.6732342552 7.6272066954e-04 0.2358853635
0.6618729181 -9.3753805418e-05 0.4742037674
0.6817681436 0.0014528465 0.4693910299
0.6618729181 -9.3753805418e-05 0.9742047637
0.6732342552 7.6272066954e-04 0.7358854394
0.6632866425 0.2508160407 0.4878209889
0.6632866425 0.2508160407 0.9878173832
0.6675057262 0.1186775186 0.8551021659
0.667568313 0.3804703962 0.3532852333
0.6676124919 0.3870944063 0.6030146756
0.6676124919 0.3870944063 0.1030145997
0.6775601046 0.3695933006 0.1028958689
0.6775785125 0.3654749339 0.3532116018
0.6775601046 0.3695933006 0.6028959448
0.6675057262 0.1186775186 0.35510209
0.6676124919 0.1137026775 0.6078568657
0.6775785125 0.3654749339 0.8532116777
0.6832959968 0.2508759158 0.4870570623
0.6776116466 0.1329857187 0.6055117031
0.677530652 0.135899424 0.8539746839
0.6719015255 0.2502940858 0.7249143491
0.667568313 0.3804703962 0.8532853092
0.6676124919 0.1137026775 0.1078567898
0.6832959968 0.2508759158 0.9870534566
0.6776116466 0.1329857187 0.1055116272
0.677530652 0.135899424 0.353974608
0.6719015255 0.2502940858 0.2249142732
0.7032022669 0.252031115 0.9820281082
0.6974516485 0.1294023232 0.094695163
0.6976173193 0.1399722335 0.3483813769
0.6919108797 0.252616199 0.2179975162
0.6876328908 0.123694012 0.8539848082
0.687614483 0.3884350882 0.1032520612
0.6875666225 0.3816334053 0.3525783711
0.687614483 0.3884350882 0.6032521371
0.6876328908 0.123694012 0.3539847324
0.6932804252 0.0036318451 0.734069503
0.6874819463 0.1144166232 0.6053984947
0.6875666225 0.3816334053 0.852578447
0.6874819463 0.1144159724 0.1053993392
0.7019652581 0.0024791189 0.9629759632
0.7019652581 0.0024791189 0.4629722058
0.6932804252 0.0036318451 0.2340694272
0.7076017478 0.121679735 0.8491251307
0.7076753792 0.3877712554 0.0966795314
0.7074323954 0.3813008381 0.3473201632
0.7076753792 0.3877712554 0.5966796072
0.6976799061 0.3740709179 0.1049575503
0.69745533 0.3614236014 0.3524255858
0.6976799061 0.3740709179 0.6049567058
0.7076017478 0.121679735 0.3491250548
0.707590703 0.1177051988 0.5972254006
0.69745533 0.3614236014 0.8524256617
0.7032022669 0.252031115 0.4820298731
0.6974516485 0.1294023232 0.5946952389
0.6976173193 0.1399722335 0.8483814527
0.6919108797 0.252616199 0.7179975921
0.7074323954 0.3813008381 0.8473193186
0.707590703 0.1177051988 0.0972253247
0.7131830138 0.0015565866 0.7295586546
0.7131830138 0.0015565215 0.2295585787
0.7330708761 4.2006579791e-04 0.7302213379
0.7175567236 0.1274778589 0.5930035557
0.7176929419 0.1374151756 0.844667665
0.71214481 0.2509039009 0.7164872264
0.7175567236 0.1274778589 0.0930034798
0.7176929419 0.1374151756 0.3446675892
0.71214481 0.2509039009 0.2164871505
0.7275779678 0.1225010654 0.8441209513
0.7276773703 0.3864448914 0.094358299
0.7276331914 0.3745713958 0.3433228943
0.7276773703 0.3864448914 0.5943583749
0.7275779678 0.1225010654 0.3441208754
0.7278209517 0.1148006049 0.5934204939
0.7230938108 0.2504847751 0.4817454716
0.7320253091 0.2502446238 0.7105654148
0.7276331914 0.3745713958 0.8433229702
0.7278209517 0.1148006049 0.0934204181
0.7230938108 0.2504847751 0.9817427863
0.7320253091 0.2502446238 0.2105653389
0.7176892603 0.3735372484 0.099102007
0.7176082657 0.3664023474 0.3491462238
0.7176892603 0.3735372484 0.5991020829
0.7176082657 0.3664023474 0.8491462997
0.7221770989 -5.4190602689e-04 0.9626078058
0.7221770989 -5.4190602689e-04 0.4626049688
0.7330708761 4.2006579791e-04 0.230221262
0.7619491419 0.0024939576 0.958493647
0.7619491419 0.0024939576 0.4584889691
0.7421496374 0.0010042387 0.4628856888
0.7421496374 0.0010042387 0.9628839239
0.7531060014 0.0028070003 0.2319331939
0.7531060014 0.0028070003 0.7319332698
0.7631125193 0.2534681178 0.9721246744
0.7631125193 0.2534681178 0.4721273597
0.7579067737 0.128389002 0.0967181879
0.7575570242 0.1378512226 0.3459819111
0.7522224236 0.2513829018 0.2118456062
0.7379489615 0.3735190255 0.1017886356
0.7375844857 0.3642748284 0.3495410726
0.7379489615 0.3735190255 0.6017887114
0.7375844857 0.3642748284 0.8495402281
0.7431915228 0.2504645998 0.4775052188
0.7379563247 0.1253620546 0.6028002239
0.7375660779 0.1378004589 0.8485572479
0.7431915228 0.2504652506 0.9775089762
0.7379563247 0.1253620546 0.102800148
0.7375660779 0.1378004589 0.348557172
0.7476499088 0.124747033 0.8418733504
0.7478928927 0.3870970095 0.0927991525
0.7475320984 0.3775560401 0.342599465
0.7478928927 0.3870970095 0.5927992283
0.7578257791 0.3769898298 0.1001300865
0.7573692639 0.3681530437 0.3506372613
0.7578257791 0.3769898298 0.6001301624
0.7476499088 0.124747033 0.3418732746
0.7477235403 0.1172743583 0.5928885065
0.7573692639 0.3681530437 0.8506373371
0.7579067737 0.128389002 0.5967182638
0.7575570242 0.1378512226 0.8459819869
0.7522224236 0.2513829018 0.7118456821
0.7475320984 0.3775560401 0.8425995409
0.7477235403 0.1172743583 0.0928884306
0.7874771754 0.3822588399 0.3347862448
0.7879226459 0.3821957107 0.5842496933
0.7779492621 0.3737220803 0.0972179616
0.7779492621 0.3737220803 0.5972180374
0.7877091146 0.1216081452 0.3421908103
0.7775295627 0.3690967276 0.3437030168
0.7875618516 0.115516503 0.5890983262
0.7775295627 0.3690967276 0.8437030927
0.7830924209 0.2515267322 0.4661392797
0.7776694625 0.1341461245 0.5889565856
0.7775516522 0.1344435476 0.8412677315
0.7722244147 0.2502654499 0.7114241419
0.7874771754 0.3822588399 0.8347863206
0.7875618516 0.115516503 0.0890982503
0.7820542171 0.0014577276 0.9609326897
0.7830924209 0.2515267322 0.9661421168
0.7776694625 0.1341461245 0.0889565097
0.7775516522 0.1344435476 0.3412676557
0.7820542171 0.0014577276 0.4609316934
0.7722244147 0.2502654499 0.2114249864
0.7677623471 0.1224483492 0.8436276204
0.7678212523 0.3858474419 0.0878778085
0.7674236423 0.3807339769 0.3383233169
0.7678212523 0.3858474419 0.5878778844
0.7677623471 0.1224483492 0.3436275445
0.7676887156 0.1178744111 0.5940371576
0.7732552554 3.7288160381e-04 0.2159919788
0.7732552554 3.7288160381e-04 0.7159920547
0.7674236423 0.3807339769 0.8383233928
0.7676887156 0.1178744111 0.0940370817
0.7877091146 0.1216081452 0.8421908862
0.7879226459 0.3821957107 0.0842496174
0.8132997349 2.4226273822e-04 0.7190790544
0.7933161517 0.001549753 0.219835542
0.8132997349 2.4226273822e-04 0.219079899
0.7933161517 0.001549753 0.7198356179
0.802100387 -0.0019256069 0.4608258482
0.802100387 -0.0019255809 0.9608222425
0.7920901875 0.2500975393 0.7106077529
0.7920901875 0.2500975393 0.210607677
0.8077074241 0.1191766948 0.8390017228
0.8079724974 0.3827534604 0.0841989958
0.8075123007 0.3806246397 0.3344015203
0.8079724974 0.3827534604 0.5841990717
0.7979622979 0.3693323232 0.0943757865
0.7979622979 0.3693323232 0.5943758624
0.7974247882 0.3620164952 0.3433118496
0.7974247882 0.3620164952 0.8433119254
0.8077074241 0.1191766948 0.3390016469
0.8075638427 0.1139877351 0.5943979518
0.8033373959 0.2490685984 0.4701255039
0.7975573248 0.1321162279 0.5881420373
0.7977450851 0.1338779881 0.8397426395
0.8120222287 0.2501717323 0.7073523211
0.8075123007 0.3806246397 0.8344015962
0.8075638427 0.1139877351 0.0943987963
0.8033373959 0.2490685984 0.9701274205
0.7975573248 0.1321162279 0.0881419615
0.7977450851 0.1338779881 0.3397425637
0.8120222287 0.2501717323 0.2073522452
0.8234056553 0.2488616388 0.9643749613
0.8376864805 0.1331145804 0.0873255724
0.8376423016 0.1326622629 0.339018214
0.8319579515 0.2491610144 0.2167559054
0.8178980207 0.3670824506 0.0946666308
0.8174672766 0.3658348355 0.3437066984
0.8178980207 0.3670824506 0.5946667067
0.8174672766 0.3658348355 0.8437067742
0.817688171 0.1322040881 0.584857153
0.8177102604 0.1334087494 0.8343592581
0.817688171 0.1322040881 0.0848570771
0.8177102604 0.1334087494 0.3343591822
0.8275916048 0.1149463878 0.8356671372
0.8279634438 0.3800336984 0.0800336631
0.8274369787 0.3821807419 0.3317590706
0.8332685918 8.086032307e-04 0.2114884935
0.8332685918 8.0853814905e-04 0.7114885694
0.821921981 -0.0020456826 0.9632612852
0.821921981 -0.0020457021 0.4632630501
0.8421522297 0.0011781368 0.4688351122
0.8421522297 0.0011780717 0.9688388697
0.8377453857 0.3652107025 0.0888451421
0.8279634438 0.3800336984 0.5800333708
0.8275916048 0.1149463878 0.3356670613
0.8375649886 0.37180087 0.3418677522
0.8278014545 0.117470254 0.5863454293
0.8234056553 0.2488616388 0.4643730446
0.8376864805 0.1331145804 0.5873256483
0.8376423016 0.1326622629 0.8390182899
0.8319579515 0.2491610144 0.7167559813
0.8377453857 0.3652107025 0.588845218
0.8375649886 0.37180087 0.8418678281
0.8274369787 0.3821807419 0.8317591465
0.8278014545 0.117470254 0.0863453534
0.8533184433 -8.9595018675e-04 0.7056063347
0.8533184433 -8.9595018675e-04 0.2056062588
0.8622241706 0.5005727185 0.4757417449
0.8622241706 0.5005727185 0.9757418208
0.843289836 0.2500350609 0.9573431551
0.8475678249 0.113636945 0.8380334688
0.8676581737 0.1114443443 0.8407790026
0.8478402614 0.379276148 0.0835496582
0.867794392 0.375719436 0.0917839585
0.8475788696 0.3859984313 0.3348755229
0.8578504608 0.365223068 0.0953081451
0.8478402614 0.379276148 0.5835492739
0.8475678249 0.113636945 0.338033393
0.8574712587 0.3733114151 0.347373546
0.8674925029 0.3882437482 0.3400647014
0.8476525011 0.1206104435 0.5908286659
0.867794392 0.375719436 0.5917840343
0.8676581737 0.1114443443 0.3407789267
0.8676692185 0.1265797322 0.5914352052
0.8631997877 0.2506279547 0.455482964
0.8575964322 0.1348503079 0.5901245649
0.8576553374 0.1251518408 0.8421439461
0.8520556635 0.2502797679 0.7248250709
0.8578504608 0.365223068 0.595308221
0.8574712587 0.3733114151 0.8473736219
0.8475788696 0.3859984313 0.8348755988
0.8674925029 0.3882437482 0.8400647772
0.8476525011 0.1206104435 0.09082859
0.8676692185 0.1265797322 0.0914351293
0.8631997877 0.2506279547 0.9554839603
0.8575964322 0.1348503079 0.090124489
0.8576553374 0.1251518408 0.3421438702
0.8520556635 0.2502797679 0.2248249951
0.843289836 0.2500350609 0.45734492
0.8731915793 0.5016296444 0.2080195305
0.8731915793 0.5016296444 0.7080196064
0.8821525303 0.5014636862 0.4871684299
0.8821525303 0.5014636862 0.9871639038
0.8930941679 0.5001568468 0.2104742199
0.8930941679 0.5001568468 0.7104742958
0.8876049412 0.1136890104 0.8490008775
0.8875865334 0.3695861416 0.102601343
0.8875607623 0.3892316876 0.3498024644
0.8776389206 0.3628254601 0.0979597987
0.8875865334 0.3695861416 0.6026014189
0.8876049412 0.1136890104 0.3490008017
0.8775726523 0.3759485234 0.3488047579
0.8875975781 0.1276054189 0.6011591623
0.8831907341 0.2514694604 0.457431437
0.8775468813 0.1434046396 0.5927762185
0.877756731 0.1240278808 0.8459921113
0.8721681018 0.2512598975 0.7368251611
0.8923099927 0.2496536824 0.7414473772
0.8776389206 0.3628254601 0.5979598746
0.8775726523 0.3759485234 0.8488048337
0.8875607623 0.3892316876 0.8498025403
0.8875975781 0.1276054189 0.1011590864
0.8831907341 0.2514694604 0.9574351945
0.8775468813 0.1434046396 0.0927761426
0.877756731 0.1240278808 0.3459920354
0.8721681018 0.2512598975 0.2368250852
0.8923099927 0.2496536824 0.2414473013
0.9131955615 0.5011350239 0.211653244
0.9131955615 0.5011350239 0.7116533199
0.902139795 0.5008968251 0.4885076024
0.908015587 0.1142734435 0.859979331
0.9077468321 0.3761496257 0.0994821295
0.902139795 0.5008968251 0.9885076783
0.8976630012 0.3638192568 0.0973495778
0.908015587 0.1142734435 0.3599792551
0.8977624037 0.377315238 0.3474057598
0.907643748 0.1269617615 0.6068702038
0.9176686738 0.3630708179 0.1032051211
0.9029534229 0.250133985 0.459557546
0.9177828026 0.3737214294 0.3533202083
0.9077357874 0.3869616397 0.349598137
0.9077468321 0.3761496257 0.5994822054
0.8976777275 0.1365587011 0.6016469709
0.8977624037 0.1209566779 0.8497924159
0.9177423053 0.1386120271 0.6021614708
0.9179705629 0.1285640716 0.8517961125
0.9122898943 0.2504398687 0.7396664158
0.8976630012 0.3638192568 0.5973496537
0.8977624037 0.377315238 0.8474058356
0.9176686738 0.3630708179 0.603205197
0.9177828026 0.3737214294 0.8533193637
0.9077357874 0.3869616397 0.8495982129
0.907643748 0.1269617615 0.106870128
0.9029534229 0.250133985 0.9595613034
0.8976777275 0.1365587011 0.101646895
0.8977624037 0.1209566779 0.3497923401
0.9177423053 0.1386113763 0.1021613949
0.9179705629 0.1285640716 0.3517960367
0.9122898943 0.2504398687 0.2396672603
0.9422210903 0.5026026151 0.4959701528
0.9422210903 0.5026026151 0.9959720694
0.9222669596 0.5010979274 0.4948693622
0.9222669596 0.5010979274 0.9948675973
0.9334074023 0.5030692505 0.2193670617
0.9334074023 0.5030692505 0.7193671376
0.9234634712 0.2503637232 0.4706041085
0.9234634712 0.2503637232 0.9706060252
0.9277525048 0.1137267577 0.8547146803
0.9276972812 0.3784801995 0.1097721286
0.9378363357 0.3656500036 0.1091398183
0.9277525048 0.1137267577 0.3547146044
0.9377627043 0.3770008936 0.3570487222
0.9278703151 0.1276314516 0.6050183722
0.9277083259 0.391159406 0.3583197856
0.9430604891 0.2533971788 0.4719073857
0.9276972812 0.3784801995 0.6097722045
0.9379210119 0.1389393878 0.6119093581
0.9377111622 0.1286864251 0.860908008
0.9321924829 0.2535533747 0.7442168411
0.9378363357 0.3656500036 0.6091398942
0.9377627043 0.3770008936 0.8570487981
0.9277083259 0.391159406 0.8583198615
0.9278703151 0.1276314516 0.1050182963
0.9430604891 0.2533971788 0.97190378
0.9379210119 0.1389393878 0.1119092823
0.9377111622 0.1286864251 0.3609079321
0.9321924829 0.2535533747 0.2442167653
0.9730248192 0.5023741785 0.2208028756
0.9624145232 0.5036946851 0.5031851173
0.9530743702 0.5020370556 0.7206087484
0.9530743702 0.5020370556 0.2206086725
0.9676018608 0.1322118979 0.6142324313
0.962977804 0.2539451662 0.4716496755
0.9676718107 0.3917737767 0.3617344454
0.967583453 0.375996033 0.613055248
0.9577094717 0.3670733392 0.611478614
0.957672656 0.3816835181 0.8639922465
0.9676718107 0.3917737767 0.8617345213
0.9477508143 0.1272891221 0.6069962978
0.9477508143 0.1272891221 0.1069962219
0.9477139985 0.3754395849 0.1097712082
0.9477139985 0.3754395849 0.6097712841
0.9676018608 0.1322118979 0.1142323554
0.962977804 0.2539451662 0.9716460698
0.9575879798 0.1424550983 0.1073551753
0.9478060379 0.3904988272 0.3584155066
0.9478060379 0.3904988272 0.8584155824
0.9576137508 0.1238489063 0.3608784795
0.9523454185 0.2539484203 0.2493350734
0.9721301968 0.2524450343 0.2519149363
0.9575879798 0.1424550983 0.6073552512
0.9576137508 0.1238489063 0.8608785554
0.9523454185 0.2539484203 0.7493351493
0.9721301968 0.2524450343 0.7519150122
0.9676534029 0.1145903912 0.8634464532
0.967583453 0.375996033 0.1130551721
0.9577094717 0.3670733392 0.1114785381
0.9676534029 0.1145903912 0.3634463773
0.957672656 0.3816835181 0.3639921706
0.9476109145 0.1160911739 0.8576921532
0.9476109145 0.1160918248 0.3576920773
0.9730248192 0.5023741785 0.7208029514
0.9624145232 0.5036946851 1.0031879543
0.9821403962 0.0029145152 0.5056867467
0.9821403962 0.0029145152 1.0056914246
0.9931298944 0.5036328575 0.2313745151
0.9931298944 0.5036328575 0.7313736705
0.9775016131 0.1438035901 0.6128812937
0.9776415129 0.1243643529 0.8602876628
0.9776451945 0.3627922685 0.1113275936
0.9975735541 0.1404570918 0.6176038326
0.9776304682 0.3828497813 0.3648278879
0.9975183305 0.1294127363 0.8690801817
0.9974888779 0.3647635915 0.1171960224
0.9920806458 0.2530288167 0.7581046583
0.9977244986 0.3789774233 0.3678808331
0.9876296229 0.1121231459 0.8680539429
0.9876222598 0.3759979855 0.1168646808
0.9876296229 0.1121231459 0.3680538671
0.9875302204 0.1272285962 0.6156065787
0.9832522316 0.2507138625 0.4734895421
0.9876922097 0.3913618099 0.3648315695
0.9876222598 0.3759979855 0.6168638362
0.9776451945 0.3627922685 0.6113276695
0.9776304682 0.3828497813 0.8648279638
0.9974888779 0.3647635915 0.6171960983
0.9977244986 0.3789774233 0.867880909
0.9876922097 0.3913618099 0.8648316454
0.9875302204 0.1272285962 0.1156065029
0.9832522316 0.2507138625 0.9734868567
0.9775016131 0.1438035901 0.1128812178
0.9776415129 0.1243643529 0.3602885073
0.9975735541 0.1404570918 0.1176046771
0.9975183305 0.1294127363 0.3690801058
0.9920806458 0.2530288167 0.2581045825
0.0029191581 0.7522629721 0.4848683666
0.0122527211 0.7522499557 0.764817088
0.0175503219 0.6211319139 0.8725353388
0.0176871292 0.8616196636 0.1252724752
0.0128833011 1.0016493353 0.7312825516
0.0218857434 1.0002305554 1.0113334366
0.0128833011 1.0016493353 0.2312824757
0.0218857434 1.0002305554 0.5113361219
0.0020975045 1.0013434516 0.0047382054
0.0020975045 1.0013434516 0.5047378211
0.0074994779 0.874557895 0.62428773
0.0075871361 0.889019037 0.8717060643
0.0174164967 0.8790290042 0.8755312196
0.0174968655 0.6359581639 0.1220731875
0.0227889807 0.7495230347 0.9809236361
0.0029191581 0.7522629721 0.9848721241
0.0074678163 0.6261249779 0.1220566204
0.0074941028 0.6154327141 0.3720713846
0.0122527211 0.7522499557 0.2648170121
0.0074994779 0.874557895 0.1242876542
0.0075871361 0.889019037 0.3717059884
0.0174164967 0.8790290042 0.3755311437
0.0176871292 0.8616196636 0.6252725511
0.0175503219 0.6211319139 0.3725352629
0.0174968655 0.6359581639 0.6220732633
0.0074678163 0.6261249779 0.6220566962
0.0227889807 0.7495230347 0.4809198786
0.0074941028 0.6154333649 0.8720714605
0.0476453847 0.8752477605 0.6180916411
0.0472820134 0.8879712225 0.8688077452
0.0275495503 0.8743431256 0.6211445863
0.0274290156 0.8883682205 0.8702877379
0.0374260718 0.8777924529 0.8755569906
0.0375707577 0.6354505271 0.1267773185
0.0429977658 0.7497768531 0.9873019629
0.0474992262 0.6251331336 0.1252678732
0.0474811865 0.6119742754 0.3740888871
0.0275188828 0.6272463346 0.1223511463
0.0274702124 0.6133377359 0.3729825742
0.0476453847 0.8752477605 0.1180915653
0.0320789539 0.7499851144 0.2633719943
0.0472820134 0.8879712225 0.3688076693
0.0275495503 0.8743431256 0.1211445104
0.0274290156 0.8883682205 0.370287662
0.0374257037 0.6244972859 0.3793185629
0.0374260718 0.8777924529 0.3755569147
0.0376259813 0.8634289334 0.6266411762
0.0375707577 0.6354505271 0.6267773944
0.0429977658 0.7497768531 0.4873009666
0.0474992262 0.6251331336 0.6252679491
0.0474811865 0.6119742754 0.874088963
0.0275188828 0.6272463346 0.6223512222
0.0274702124 0.6133377359 0.87298265
0.0320789539 0.7499851144 0.7633711498
0.0374257037 0.6244972859 0.8793186387
0.0376259813 0.8634289334 0.1266411003
0.0520058408 0.7499525736 0.2610102647
0.0520058408 0.7499525736 0.7610103406
0.0330770286 1.0006210453 0.7388960464
0.0330770286 1.0006210453 0.2388959706
0.0419614027 0.4983410688 0.5172689783
0.0419614027 0.4983410688 0.0172686263
0.052920712 0.500624133 0.7436563215
0.052920712 0.500624133 0.2436562456
0.0617958822 1.0009594699 0.0086199649
0.0617958822 1.0009594699 0.5086200408
0.0731358662 0.9990525776 0.7430994835
0.0731358662 0.9990525776 0.2430994076
0.0775430783 0.6259616229 0.3748104756
0.0774893273 0.6371270303 0.62643961
0.0774333674 0.8705228329 0.3774566069
0.0774006014 0.8602008837 0.626240805
0.0775430783 0.6259616229 0.8748105515
0.0774006014 0.8602008837 0.1262407291
0.0675350878 0.8808252576 0.6242113374
0.0673657354 0.8887587104 0.8713526332
0.0574155456 0.8701909165 0.8743770461
0.0574457345 0.637209684 0.1204993146
0.0632004027 0.7511435677 0.9915541807
0.0675001128 0.6218575743 0.1229033824
0.0674772871 0.6103179474 0.3717032272
0.0720380208 0.7472972424 0.2606006896
0.0675350878 0.8808252576 0.1242121819
0.0673657354 0.8887587104 0.3713525573
0.0576077237 0.6302407412 0.3727377495
0.0574457345 0.637209684 0.6204993905
0.0632004027 0.7511435677 0.4915522641
0.0574155456 0.8701909165 0.3743769703
0.057601465 0.8627195434 0.626923737
0.0675001128 0.6218569235 0.6229034582
0.0674772871 0.6103179474 0.8717033031
0.0720380208 0.7472972424 0.7606007655
0.0576077237 0.6302407412 0.8727378254
0.057601465 0.8627195434 0.1269236611
0.0774893273 0.6371270303 0.1264404545
0.0774333674 0.8705228329 0.8774566827
0.0975056766 0.8612096492 0.6280705472
0.0830867923 0.749614149 0.4920327095
0.0874792782 0.623989649 0.6320825424
0.0875212481 0.6158023778 0.8804102254
0.0919056345 0.7518139087 0.7682280662
0.0973300655 0.6270087866 0.8843900068
0.0975056766 0.8612096492 0.1280704714
0.1031186042 0.749692247 0.997159377
0.1031186042 0.749692247 0.4971629827
0.1019265105 0.9998140329 0.5170195516
0.1019265105 0.9998140329 0.0170196598
0.0874428306 0.8786385143 0.6297935238
0.0875672678 0.8863832303 0.8826348164
0.0975664225 0.8741348643 0.8765648214
0.0974254182 0.6406251688 0.1321386105
0.0830867923 0.749614149 0.9920327853
0.0930546537 1.0011482067 0.2480999054
0.0930546537 1.0011482067 0.7480990608
0.0819086887 0.4994402978 0.5153260276
0.0819086887 0.4994402978 0.0153260438
0.0874792782 0.623989649 0.1320824665
0.0874428306 0.8786385143 0.129793448
0.0875212481 0.6158023778 0.3804101495
0.0919056345 0.7518139087 0.2682279903
0.0875672678 0.8863832303 0.3826347406
0.0973300655 0.6270087866 0.3843899309
0.0974254182 0.6406251688 0.6321386864
0.0975664225 0.8741348643 0.3765647456
0.1271843165 0.8760482647 0.642752664
0.127828592 0.8853354158 0.8897264482
0.1074300954 0.8754364972 0.6306761812
0.1075895075 0.8881729756 0.8800586351
0.1176438859 0.8736988173 0.8773462355
0.1175293889 0.6369421984 0.1355459072
0.1229832725 0.7511370596 0.9966531606
0.1275999662 0.624674308 0.1297704381
0.1271843165 0.8760482647 0.1427525881
0.127828592 0.8853354158 0.3897263723
0.1272623659 0.6136039198 0.3800880118
0.1074300954 0.8754364972 0.1306761053
0.107478324 0.624986049 0.1302923012
0.1075895075 0.8881729756 0.3800585592
0.1072077283 0.6144799188 0.3789706541
0.1120644606 0.75028449 0.2707618336
0.117300395 0.6249632705 0.3869486248
0.1275999662 0.624674308 0.629770514
0.1175293889 0.6369421984 0.6355459831
0.1229832725 0.7511370596 0.4966549255
0.1220787098 0.9998791145 0.5168713683
0.1176438859 0.8736988173 0.3773461596
0.1272623659 0.6136039198 0.8800880877
0.1174436083 0.8642815029 0.6321699798
0.107478324 0.624986049 0.6302923771
0.1130238788 1.0003672269 0.74341886
0.1072077283 0.6144799188 0.8789698096
0.1120644606 0.75028449 0.7707619095
0.117300395 0.6249632705 0.8869487007
0.1130238788 1.0003672269 0.2434187841
0.1174436083 0.8642815029 0.1321699039
0.1220787098 0.9998791145 0.0168711083
0.1573157901 0.6262063299 0.3981617786
0.1574310233 0.8670865219 0.6368888372
0.1573157901 0.6262063299 0.8981618544
0.1574310233 0.8670865219 0.1368887613
0.1526644896 1.0023782498 0.252552769
0.1320863322 0.7516381883 0.2724047359
0.1526644896 1.0023782498 0.7525528449
0.1472374815 0.8730480008 0.6433306711
0.1577115593 0.8813198781 0.385232091
0.1578683943 0.635075006 0.649531362
0.1477724142 0.8894355595 0.8951871427
0.1320863322 0.7516381883 0.7724048118
0.1377971897 0.8767901955 0.8802694052
0.1375619371 0.6389050609 0.13887405
0.1428100207 0.7525623476 1.0017705484
0.1475853902 0.6293172327 0.138628305
0.1472374815 0.8730480008 0.1433305952
0.1477724142 0.8894355595 0.3951870668
0.1474675799 0.6169660377 0.3880991166
0.1330663672 1.0027882642 0.7460935234
0.1330663672 1.0027882642 0.2460934476
0.1520474578 0.7528747395 0.275696063
0.142151019 0.5014936238 0.5248557817
0.1377971897 0.8767901955 0.3802693293
0.142151019 0.5014936238 0.0248557979
0.1474675799 0.6169660377 0.8880991925
0.1373230029 0.6256739621 0.8892202318
0.1373230029 0.6256739621 0.3892201559
0.137173531 0.8685703835 0.131655404
0.137173531 0.8685703835 0.6316554798
0.1520474578 0.7528747395 0.7756961389
0.1475853902 0.6293172327 0.6386283808
0.1375619371 0.6389050609 0.6388741259
0.1428100207 0.7525623476 0.5017741541
0.1578683943 0.635075006 0.1495312861
0.1577115593 0.8813198781 0.8852321668
0.167528108 0.8787491531 0.6423937106
0.1677545248 0.8877694694 0.8936638915
0.1777349035 0.6406902505 0.147238586
0.1629382898 0.7510719779 0.0027181258
0.1776561178 0.8781829427 0.8897365725
0.1677162364 0.6270120407 0.1360999841
0.1673495516 0.6197241979 0.386946784
0.167528108 0.8787491531 0.1423936347
0.1677545248 0.8877694694 0.3936638156
0.1719761856 0.7526079048 0.2756113868
0.1776561178 0.8781829427 0.3897364966
0.1775828545 0.8664877708 0.6425428143
0.1773663779 0.6280416324 0.3936021493
0.1677162364 0.6270120407 0.6361000599
0.1777349035 0.6406902505 0.6472386618
0.1673495516 0.6197241979 0.8869468599
0.1719761856 0.7526079048 0.7756114627
0.1629382898 0.7510719779 0.5027184778
0.1773663779 0.6280416324 0.8936022251
0.1775828545 0.8664877708 0.1425427384
0.1830514644 0.7537142928 0.0075696118
0.1830514644 0.7537142928 0.5075698718
0.1728980517 1.0019877599 0.7527258788
0.1621570598 1.001005027 0.0284459767
0.1728980517 1.0019877599 0.252725803
0.1820500763 1.0029379519 0.0307153909
0.1621570598 1.001005027 0.5284462367
0.1820500763 1.0029379519 0.5307150066
0.1930248481 1.0045910258 0.7568446397
0.2021187038 1.0020528415 0.0309058203
0.1930248481 1.0045910258 0.2568445638
0.2021187038 1.0020528415 0.5309055281
0.2076730944 0.6290900977 0.1373848534
0.207201853 0.6168274138 0.3844157019
0.2075026375 0.8766274914 0.148707534
0.2077389946 0.888348696 0.4001894054
0.2076730944 0.6290900977 0.6373849292
0.207201853 0.6168274138 0.8844157778
0.1873971942 0.8792112328 0.6468732656
0.1876055713 0.8918045315 0.8946164987
0.1977243772 0.6374179453 0.1493334015
0.2029500032 0.753720801 0.0063550606
0.1976842481 0.8785799408 0.8864019869
0.1875952629 0.6283423096 0.1413830426
0.1874958604 0.6183418637 0.3922362853
0.1920356092 0.7553608585 0.2784811737
0.1873971942 0.8792112328 0.1468731897
0.1876055713 0.8918045315 0.3946164229
0.1976842481 0.8785799408 0.3864019111
0.1972755934 0.8697093123 0.6370830402
0.1972722799 0.6291831645 0.401208281
0.1875952629 0.6283423096 0.6413831185
0.1977243772 0.6374179453 0.6493334774
0.2029500032 0.753720801 0.5063549524
0.1874958604 0.6183418637 0.8922363612
0.1920356092 0.7553608585 0.7784812496
0.1972722799 0.6291831645 0.9012083568
0.1972755934 0.8697093123 0.1370829643
0.2075026375 0.8766274914 0.6487076098
0.2077389946 0.888348696 0.9001894813
0.2320329645 0.7511696004 0.2857384763
0.2320329645 0.7511696004 0.7857385522
0.2274162709 0.8788077266 0.648291592
0.2276393742 0.8923577255 0.8978360351
0.2176486871 0.637603428 0.1465915493
0.2130573963 1.0033870153 0.760980888
0.2230572873 0.7535841295 0.0117214148
0.2177893232 0.874440748 0.8880154367
0.2276091853 0.6262759673 0.1422564961
0.2274133256 0.6161414532 0.3932726484
0.2130573963 1.0033870153 0.2609808121
0.2120718389 0.7523540864 0.2792064438
0.2274162709 0.8788077266 0.1482915161
0.221833164 1.003413048 0.027356599
0.2276393742 0.8923577255 0.3978359593
0.2177893232 0.874440748 0.3880153608
0.2330575466 1.00230666 0.7599325598
0.2172956242 0.8662860177 0.6371944078
0.21742632 0.6295918772 0.3988557552
0.2330575466 1.00230666 0.2599334043
0.2276091853 0.6262766181 0.6422565719
0.221833164 1.003413048 0.5273564908
0.2176486871 0.637603428 0.6465907048
0.2230572873 0.7535841295 0.5117217668
0.2274133256 0.6161414532 0.8932727243
0.2120718389 0.7523540864 0.7792055992
0.21742632 0.6295918772 0.8988558311
0.2172956242 0.8662860177 0.1371943319
0.2417051955 1.0020853824 0.0348636964
0.2473954362 0.8802004738 0.6529865191
0.2474175256 0.8882510735 0.8991024966
0.237610549 0.6380739683 0.1519436374
0.2376635637 0.8760612811 0.8948870944
0.242957667 0.7519635965 0.0130937215
0.2417051955 1.0020853824 0.53486322
0.2475327589 0.624986049 0.1444534753
0.247243019 0.6117835861 0.3943762002
0.2517444794 0.7499720981 0.2834991589
0.2473954362 0.8802004738 0.1529864432
0.2474175256 0.8882510735 0.3991024207
0.2376635637 0.8760612811 0.3948870186
0.2374400922 0.86195158 0.6468557781
0.2372920929 0.6280175522 0.4023219571
0.2475327589 0.624986049 0.6444535512
0.237610549 0.6380739683 0.6519437133
0.242957667 0.7519635965 0.5130940735
0.247243019 0.6117835861 0.894376276
0.2517444794 0.7499720981 0.7834992348
0.2372920929 0.6280175522 0.902322033
0.2374400922 0.86195158 0.1468557023
0.2618253651 0.9978160263 0.0342514506
0.2529859062 0.9999962615 0.7632579414
0.2575024611 0.6346285459 0.1514742367
0.2529859062 0.9999962615 0.2632587859
0.2574869984 0.8705033084 0.8972589484
0.2630597969 0.750206392 0.0167758476
0.2618253651 0.9978160263 0.5342511584
0.2573474668 0.6295326529 0.4017568355
0.2575024611 0.6346285459 0.6514743126
0.2574869984 0.8705033084 0.3972588726
0.2630597969 0.750206392 0.5167756474
0.257305865 0.8607345532 0.646425034
0.2573474668 0.6295326529 0.9017569114
0.257305865 0.8607345532 0.1464249581
0.2673249003 0.8785799408 0.1543431032
0.2675553668 0.8859211506 0.4050315955
0.2773940049 0.6257904582 0.4038221984
0.2775784518 0.6361455991 0.656703068
0.2776472972 0.8769008343 0.3972358627
0.2773476171 0.8621468249 0.6487048486
0.2676150083 0.6235581577 0.6454788695
0.2672895571 0.6106238312 0.8947582393
0.2719154548 0.7511630922 0.7893050769
0.2773940049 0.6257904582 0.9038222743
0.2730265538 1.0007447004 0.2707774803
0.2773476171 0.8621468249 0.1487047728
0.2820368378 1.0019291864 0.0423117045
0.2873320455 0.8755666605 0.6580937825
0.287658233 0.8869234079 0.9085383705
0.2820368378 1.0019291864 0.5423119644
0.2730265538 1.0007447004 0.7707775562
0.2828762366 0.7516837454 0.0157225493
0.2875330595 0.6263983208 0.1525152018
0.2873140058 0.6137978631 0.4021608882
0.2873320455 0.8755666605 0.1580937066
0.287658233 0.8869234079 0.4085382946
0.2828762366 0.7516837454 0.5157227172
0.2875330595 0.6263983208 0.6525152776
0.2873140058 0.6137978631 0.9021609641
0.2673249003 0.8785799408 0.6543431791
0.2675553668 0.8859211506 0.9050316714
0.2775784518 0.6361455991 0.1567029921
0.2776472972 0.8769008343 0.8972359386
0.2676150083 0.6235581577 0.1454787936
0.2672895571 0.6106238312 0.3947581635
0.2719154548 0.7511630922 0.289305001
0.307519588 0.8792502818 0.660448149
0.3073778474 0.8882901225 0.9077477525
0.2975303735 0.6373047032 0.1596721815
0.2975852289 0.8687461039 0.9037799362
0.3029860978 0.7503365553 0.0257008111
0.3075880652 0.6202936623 0.1576003757
0.3072037089 0.612677808 0.4061793261
0.2919682516 0.7502909982 0.2907573819
0.2972895985 0.62848614 0.4106947766
0.2975303735 0.6373047032 0.6596722573
0.3029860978 0.7503365553 0.5257007029
0.2975852289 0.8687461039 0.4037798603
0.2975071795 0.8625763638 0.6563864526
0.3075880652 0.6202936623 0.6576004516
0.3072037089 0.612677808 0.906179402
0.2919682516 0.7502909982 0.7907574578
0.2972895985 0.62848614 0.9106948524
0.2975071795 0.8625763638 0.1563863767
0.307519588 0.8792502818 0.1604480732
0.3073778474 0.8882901225 0.4077476766
0.3117526616 0.7495295429 0.2952571856
0.2930911316 1.0002110309 0.7755543983
0.3117526616 0.7495295429 0.7952563411
0.3017332582 1.0001459493 0.0460164723
0.3131465055 0.9989419388 0.7805401698
0.2930911316 1.0002110309 0.2755543224
0.3017332582 1.0001459493 0.5460165482
0.3131465055 0.9989419388 0.2805400939
0.3217529209 1.0006535861 0.0370642651
0.3217529209 1.0006535861 0.5370638808
0.3418289116 0.9986230387 0.0267677313
0.3418289116 0.9986230387 0.526767439
0.333079283 0.9995211655 0.7896686323
0.333079283 0.9995211655 0.2896685564
0.3372832723 0.6353112523 0.4159769147
0.3376135095 0.6296816899 0.6665034177
0.3374264855 0.863533064 0.4084352106
0.3373823066 0.8702690145 0.6614219253
0.3372832723 0.6353112523 0.9159806722
0.3373823066 0.8702690145 0.1614218495
0.3273356596 0.8863246568 0.6624021444
0.3274921265 0.8820032354 0.9116805938
0.3174705141 0.6360336586 0.1639602947
0.3173677982 0.8696247062 0.9145356544
0.3231158395 0.751351829 0.0379955193
0.3275385143 0.6161583744 0.1567342855
0.3273286646 0.6192243708 0.4096473688
0.3317215186 0.7504732268 0.2772055083
0.317241152 0.6332598788 0.4142566993
0.3174705141 0.6360336586 0.6639603706
0.3231158395 0.751351829 0.537995319
0.3173677982 0.8696247062 0.4145401805
0.3173549127 0.8609297981 0.6626405263
0.3317215186 0.7504732268 0.7772055842
0.3275385143 0.6161583744 0.6567343614
0.3273286646 0.6192243708 0.9096474447
0.317241152 0.6332598788 0.9142595364
0.3173549127 0.8609297981 0.1626404504
0.3273356596 0.8863246568 0.1624029889
0.3274921265 0.8820032354 0.4116814384
0.3376135095 0.6296816899 0.1665033419
0.3374264855 0.863533064 0.9084352864
0.3430526668 0.7487680876 0.0430057732
0.3571935922 0.6327991008 0.4133160572
0.3575079986 0.6216922669 0.6628789082
0.35740381 0.8596086407 0.4071273314
0.3529682498 0.9963907383 0.2981527435
0.357399024 0.8721303496 0.6590905687
0.3529682498 0.9963907383 0.7981528194
0.3474223268 0.6096820997 0.6551742944
0.3473339691 0.6180014867 0.90589408
0.3571935922 0.6327991008 0.9133115311
0.3518210714 0.7463600667 0.7730647339
0.3618283256 0.9956813483 0.0254545138
0.357399024 0.8721303496 0.1590904928
0.3474031827 0.885068581 0.1608742153
0.347322188 0.8729178375 0.4093445593
0.36747586 0.877759912 0.6559842407
0.3618283256 0.9956813483 0.5254540375
0.3673654127 0.8710369779 0.9065006193
0.3627855348 0.7465553116 0.041236869
0.3674869047 0.6081025682 0.1548171059
0.3671371552 0.6227635108 0.4039013523
0.3627855348 0.7465553116 0.5412369449
0.3674869047 0.6081025682 0.6548171817
0.3671371552 0.6227635108 0.9039014282
0.36747586 0.877759912 0.1559841648
0.3673654127 0.8710369779 0.4065005435
0.3474031827 0.885068581 0.6608742912
0.347322188 0.8729178375 0.9093446352
0.3575079986 0.6216922669 0.1628788323
0.35740381 0.8596086407 0.9071274073
0.3474223268 0.6096820997 0.1551742185
0.3430526668 0.7487680876 0.5430059411
0.3473339691 0.6180014867 0.4058940042
0.3518210714 0.7463600667 0.2730646581
0.3818082272 0.9971391772 0.0192792258
0.3818082272 0.9971391772 0.5192791176
0.3929008094 0.9977379283 0.2857817348
0.3929008094 0.9977379283 0.7857808903
0.37283255 0.9965729669 0.7965393696
0.37283255 0.9965729669 0.2965392938
0.3774713331 0.6205142891 0.1635829334
0.3774971042 0.8609818634 0.9008935823
0.3829384704 0.7467440484 0.0437618765
0.3719416091 0.7462103789 0.272093643
0.3770516337 0.6346396097 0.4148347064
0.3774713331 0.6205142891 0.6635830092
0.3829384704 0.7467440484 0.5437615842
0.3774971042 0.8609818634 0.4008935064
0.3773424781 0.8701453593 0.6535958196
0.3770516337 0.6346396097 0.9148393843
0.3719416091 0.7462103789 0.7720937188
0.3773424781 0.8701453593 0.1535957437
0.387348996 0.8839752093 0.6538121121
0.3872827276 0.8730219681 0.9043515006
0.3872827276 0.608326449 0.1585189284
0.3871685988 0.618652954 0.4056951992
0.391858924 0.7450909746 0.2670802597
0.3872827276 0.608326449 0.6585190043
0.3871685988 0.618652954 0.9056952751
0.391858924 0.7450909746 0.7670803355
0.387348996 0.8839752093 0.1538120362
0.3872827276 0.8730219681 0.4043514247
0.4017549947 0.9978160263 0.0146129229
0.4017549947 0.9978160263 0.5146127227
0.4070270085 0.6260514356 0.8943459031
0.397337106 0.8608582083 0.8997394089
0.397337106 0.8608582083 0.399739333
0.4074356632 0.6106765473 0.1449283983
0.4073104897 0.870015196 0.4026394928
0.4124978274 0.4965942774 0.2867407848
0.4124978274 0.4965942774 0.7867408607
0.3971677536 0.871791925 0.6496629783
0.4074356632 0.6106765473 0.6449284742
0.3971935246 0.6320259308 0.9071559395
0.3971677536 0.871791925 0.1496629024
0.3973518323 0.6251194664 0.6560431459
0.4027600644 0.7476291588 0.0438058713
0.3971935246 0.6320259308 0.4071558636
0.3973518323 0.6251194664 0.15604307
0.4070270085 0.6260514356 0.3943458272
0.4027600644 0.7476291588 0.5438057631
0.4072810371 0.8878150265 0.6488419873
0.4073104897 0.870015196 0.9026395687
0.4072810371 0.8878150265 0.1488419114
0.4175526284 0.6232639887 0.1569643839
0.417184471 0.8597062632 0.8974402659
0.4116952443 0.7479871079 0.2606402665
0.417184471 0.8597062632 0.3974401901
0.4172028788 0.8733994417 0.6448594447
0.4169672581 0.6357010914 0.4059068897
0.4175526284 0.6232639887 0.6569644597
0.4169672581 0.6357010914 0.9059069656
0.4116952443 0.7479871079 0.7606403424
0.4172028788 0.8733994417 0.1448593688
0.4217312148 0.498244748 0.5093572759
0.4217312148 0.498244748 0.0093572921
0.4418841504 0.4971142798 -7.5703149712e-04
0.432599221 0.4967849666 0.2845226365
0.432599221 0.4967849666 0.7845227124
0.4418841504 0.4971142798 0.499243072
0.4272204415 0.8833894745 0.6475359489
0.4271762626 0.8712452392 0.8948548807
0.4228540948 0.7479350425 0.0306099138
0.4273566597 0.608759242 0.1446200665
0.4270731785 0.6221289647 0.3928612325
0.4317819116 0.7476682078 0.2523769738
0.4228540948 0.7479350425 0.5306100818
0.4273566597 0.608759242 0.6446201424
0.4270731785 0.6221289647 0.8928613084
0.4317819116 0.7476682078 0.7523770497
0.4272204415 0.8833894745 0.1475358731
0.4271762626 0.8712452392 0.3948548048
0.4373005909 0.618890502 0.1440825567
0.4372011884 0.8594914937 0.8924940714
0.4427714097 0.7462689524 0.024846778
0.4372011884 0.8594914937 0.3924939955
0.4372232778 0.8747336155 0.6414760783
0.43713492 0.6360759617 0.3916628802
0.4373005909 0.618890502 0.6440826326
0.4427714097 0.7462689524 0.5248465778
0.43713492 0.6360759617 0.8916629561
0.4372232778 0.8747336155 0.1414760024
0.4615916155 0.996026281 -0.0053300157
0.4615916155 0.996026281 0.4946696368
0.467290692 0.886650065 0.132462589
0.4673643234 0.8729959355 0.3828086949
0.4472408404 0.8864613282 0.6366881914
0.457206861 0.6232034627 0.1338174082
0.4571884531 0.8573047504 0.8853886337
0.4473107903 0.610294518 0.1341689986
0.4473107903 0.610294518 0.6341690744
0.4515409188 0.7479675834 0.2456323304
0.4571884531 0.8573047504 0.3853885579
0.4572363136 0.8679651242 0.6337171612
0.457206861 0.6386219557 0.3813130555
0.457206861 0.6232034627 0.6338165637
0.457206861 0.6386219557 0.8813131314
0.4472261141 0.8721693986 0.887861731
0.4472261141 0.8721693986 0.3878616551
0.4515409188 0.7479610752 0.7456314859
0.4572363136 0.8679651242 0.1337170854
0.4472408404 0.8864613282 0.1366881155
0.4471009406 0.621592692 0.3862693744
0.4471009406 0.621592692 0.8862694503
0.4729087738 0.496212899 0.2625786152
0.4729087738 0.496212899 0.762578691
0.4528994195 0.4977813667 0.2705860384
0.4528994195 0.4977813667 0.7705861143
0.4628433507 0.7484166467 0.0186109281
0.4673385524 0.6080068982 0.1278955966
0.4670808423 0.6181999857 0.3807939536
0.4715834072 0.7472516852 0.2426474944
0.4628433507 0.7484166467 0.518610912
0.467290692 0.886650065 0.6324626649
0.4673643234 0.8729959355 0.8828087708
0.4673385524 0.6080068982 0.6278956725
0.4670808423 0.6181999857 0.8807940295
0.4715834072 0.7472516852 0.7426475703
0.4817040539 0.4951579255 0.4914473392
0.4817040539 0.4951579255 0.9914437335
0.4930359384 0.4950837324 0.2595790528
0.4930359384 0.4950837324 0.7595782083
0.4771978074 0.6330503159 0.3791970709
0.4773450703 0.6250120817 0.6264552567
0.4827128051 0.7453187603 0.5108750048
0.477253031 0.8606174062 0.3763042742
0.4772198968 0.8684402202 0.625026806
0.4771978074 0.6330503159 0.8791971468
0.4772198968 0.8684402202 0.1250267301
0.4973176088 0.6247296274 0.1211113763
0.4972734299 0.8560812154 0.8693544589
0.4874509907 0.6093755652 0.1195752396
0.4872816383 0.6173487178 0.3687579681
0.4917878848 0.746334034 0.2407036234
0.4973396983 0.6341111468 0.3695844814
0.4973176088 0.6247296274 0.6211114521
0.4972734299 0.8560812154 0.3693543831
0.4972071616 0.8685833998 0.6181082082
0.4873074094 0.8816843354 0.6224883608
0.4871822358 0.8737964397 0.8701248283
0.4874509907 0.6093755652 0.6195753154
0.4872816383 0.6173487178 0.868758044
0.4973396983 0.6341111468 0.8695836369
0.4917878848 0.746334034 0.7407036992
0.4972071616 0.8685833998 0.1181090527
0.4873074094 0.8816843354 0.1224882849
0.4871822358 0.8737964397 0.3701247524
0.4773450703 0.6250120817 0.1264561012
0.4827128051 0.7453187603 0.0108749289
0.477253031 0.8606174062 0.8763034297
0.5017649501 0.9955642013 0.4889677992
0.521855299 0.9950110073 0.9809880636
0.521855299 0.9950110073 0.4809833858
0.5017649501 0.9955642013 0.9889678751
0.5127102694 0.4945995249 0.2563852874
0.5127102694 0.4945995249 0.7563853633
0.5228603687 0.7447004847 0.5054023451
0.5028399697 0.745702742 0.0116303879
0.5072431321 0.8694554939 0.3701983839
0.5073204452 0.8836172603 0.6198449907
0.511771468 0.7433793272 0.7346907686
0.5074124845 0.6068673185 0.1171546047
0.5028399697 0.745702742 0.5116306478
0.511771468 0.7433793272 0.2346916131
0.5072320874 0.6206574687 0.3696590333
0.5072431321 0.8694554939 0.8701984597
0.5074124845 0.6068673185 0.6171537602
0.5072320874 0.6206574687 0.8696591092
0.5073204452 0.8836172603 0.1198449148
0.5173748235 0.8728918048 0.1221385354
0.5172091527 0.8590489385 0.3714280296
0.5171576107 0.61893671 0.6137151701
0.5174042761 0.6308824463 0.8679637444
0.5173748235 0.8728918048 0.6221386113
0.5172091527 0.8590489385 0.8714281054
0.5228603687 0.7447004847 0.0054027295
0.5171576107 0.61893671 0.1137150943
0.5174042761 0.6308824463 0.3679636685
0.527333481 0.8800833268 0.6196747179
0.5370675624 0.6171658383 0.1138688
0.5372921384 0.6301606908 0.3644367207
0.5370675624 0.6171658383 0.6138688759
0.5318102748 0.7457222665 0.2265093151
0.5372921384 0.6301606908 0.8644367966
0.5418167927 0.4953707424 0.4798936399
0.5318102748 0.7457222665 0.726509391
0.537174328 0.8698134429 0.6154482711
0.5271678101 0.6086577146 0.1211684407
0.5375130328 0.8551830887 0.8626374273
0.5274549729 0.6224810565 0.3699480368
0.5518049028 0.7465618198 0.7250570101
0.5518049028 0.7465618198 0.2250569342
0.5273408441 0.8681668773 0.8683871254
0.5271678101 0.6086577146 0.6211675961
0.5274549729 0.6224810565 0.8699481127
0.527333481 0.8800833268 0.1196746421
0.5325649975 0.4957716454 0.2494611673
0.5325649975 0.4957716454 0.7494612432
0.5473686062 0.8704772757 0.3709126092
0.547309701 0.8821138742 0.61989009
0.5471698012 0.608947328 0.1218200792
0.5427040521 0.7432882129 0.0050597909
0.547431193 0.6205194956 0.369185951
0.5473686062 0.8704772757 0.8709126851
0.5471698012 0.608947328 0.6218201551
0.547431193 0.6205194956 0.8691860269
0.5427040521 0.7432882129 0.5050599588
0.547309701 0.8821138742 0.1198900141
0.537174328 0.8698134429 0.1154481952
0.5375130328 0.8551830887 0.3626373514
0.5273408441 0.8681668773 0.3683870495
0.5418167927 0.4953707424 0.9798927954
0.5573014926 0.869182151 0.112654801
0.5574671635 0.8569663258 0.3659802206
0.5573051742 0.6221764743 0.6158734929
0.5573051742 0.6221764743 0.115873417
0.5574377109 0.6358533825 0.8658422374
0.5574377109 0.6358533825 0.3658421615
0.5573014926 0.869182151 0.6126548769
0.5574671635 0.8569663258 0.8659802964
0.5629821612 0.7441407825 0.0056649496
0.5629821612 0.7441407825 0.5056646573
0.5775722386 0.869462002 0.119541185
0.5773476626 0.8594329202 0.3693792337
0.567381642 0.871713827 0.3666907643
0.5673190553 0.8829664438 0.6188021849
0.577343981 0.6212432035 0.6132107945
0.577343981 0.6212432035 0.1132107186
0.5730623106 0.4948247074 0.252211303
0.5529314644 0.4951533697 0.251486033
0.5773807968 0.631344526 0.8644137867
0.5529314644 0.4951533697 0.7514861088
0.5730623106 0.4948247074 0.7522113789
0.5616089341 0.4947732929 0.4846437906
0.5773807968 0.631344526 0.3644137109
0.5718473912 0.7467180157 0.7284302522
0.5616089341 0.4947732929 0.9846420257
0.5718473912 0.7467180157 0.2284301763
0.5775722386 0.869462002 0.6195412609
0.5773476626 0.8594329202 0.8693793096
0.5673227368 0.6054739204 0.1178817156
0.5674773629 0.6202370413 0.3662692241
0.567381642 0.871713827 0.8666908402
0.5673227368 0.6054745713 0.6178817914
0.5674773629 0.6202370413 0.8662693
0.5673190553 0.8829664438 0.118802109
0.5928065915 0.496443288 0.7502472592
0.5875014435 0.6077452699 0.1102590168
0.5829326102 0.7447720745 -0.0015258454
0.5819201774 0.4948917415 0.982064924
0.5875235329 0.8723516272 0.8659517642
0.5819201774 0.4948917415 0.4820611665
0.5874241304 0.6209913376 0.3628232709
0.5875014435 0.6077452699 0.6102590926
0.5829326102 0.7447720745 0.4984745434
0.5874241304 0.6209913376 0.8628233468
0.6020105263 0.4991012225 0.4746225464
0.6020105263 0.4991012225 0.9746189407
0.5928065915 0.496443288 0.2502471833
0.5874462199 0.8807666841 0.115847646
0.5977104479 0.8708091921 0.1181099731
0.5972134355 0.8631425741 0.3704873874
0.597415922 0.625379793 0.6118992338
0.597415922 0.625379793 0.1118991579
0.5975153245 0.6325804264 0.8616111886
0.5975153245 0.6325804264 0.3616111127
0.5919635111 0.7462689524 0.2290762925
0.5977104479 0.8708091921 0.618110049
0.5972134355 0.8631425741 0.8704874633
0.5919635111 0.7462689524 0.7290763684
0.6030781827 0.7477007486 -0.0036328561
0.6030781827 0.7477007486 0.4963668424
0.5875235329 0.8723516272 0.3659516884
0.5874462199 0.8807666841 0.6158477218
0.613202511 0.5001073847 0.2442416159
0.6119176417 0.7492887408 0.2232962215
0.613202511 0.5001073847 0.7442416918
0.6074555741 0.6109127937 0.1160354062
0.6119176417 0.7492887408 0.7232962974
0.6076506975 0.6251799924 0.3655108199
0.607378261 0.8765949506 0.856276588
0.6074555741 0.6109127937 0.6160345617
0.6076506975 0.6251799924 0.8655099754
0.6076028371 0.8871707182 0.1075788309
0.6219683385 0.4999134414 0.4730772058
0.6176977127 0.870054245 0.1135043242
0.6219683385 0.4999134414 0.9730726797
0.6174694551 0.8623290535 0.3610634786
0.6274133863 0.8720652679 0.3549980856
0.6276416439 0.8919281866 0.6086520856
0.6175209972 0.6271604269 0.1086317611
0.6177860705 0.6396827866 0.3572834226
0.6176977127 0.870054245 0.6135044
0.6174694551 0.8623290535 0.8610635545
0.6175209972 0.6271604269 0.6086309166
0.6275790571 0.610901079 0.1106124479
0.6177860705 0.6396827866 0.8572825781
0.6232789788 0.749139053 -0.0026733736
0.6276269176 0.6242193872 0.3613377559
0.6274133863 0.8720652679 0.8549981614
0.6275790571 0.610901079 0.6106125237
0.6232789788 0.749139053 0.4973268128
0.6276269176 0.6242193872 0.8613378317
0.6276416439 0.8919281866 0.1086520097
0.607378261 0.8765949506 0.3562765121
0.6076028371 0.8871707182 0.6075789068
0.6575949293 0.8652382032 0.3571195925
0.6529855987 0.4997832781 0.2432282627
0.6529855987 0.4997832781 0.7432283385
0.6421949056 0.5006781508 0.467545641
0.6421949056 0.5006781508 0.9675411149
0.6330866917 0.4995483334 0.2507138228
0.6575397056 0.6314818482 0.1086096716
0.6330866917 0.4995483334 0.7507138987
0.6575949293 0.8652382032 0.8571196684
0.6575397056 0.6314818482 0.6086097475
0.6376223908 0.8759376259 0.1094509113
0.6375045804 0.8639105376 0.3609557926
0.6375745303 0.6264171945 0.1098328746
0.637508262 0.6402105987 0.3577160075
0.6320411247 0.7495295429 0.2204052656
0.6376223908 0.8759376259 0.6094509872
0.6375045804 0.8639105376 0.8609558684
0.6375745303 0.6264171945 0.6098329505
0.6473270196 0.6271161714 0.8526566804
0.637508262 0.6402105987 0.8577160834
0.6476178639 0.8869364243 0.1067394321
0.6320411247 0.7495295429 0.7204053414
0.6576022924 0.8696767715 0.1098429989
0.6475295062 0.8782415162 0.3558439272
0.6476178639 0.8869364243 0.606739508
0.6574550294 0.6350398619 0.3592125673
0.6518995344 0.7520872516 0.2256828018
0.6576022924 0.8696767715 0.6098430748
0.647643635 0.6152986459 0.102605945
0.6429091309 0.7524712333 0.9944074005
0.6574550294 0.6350398619 0.8592126432
0.6518995344 0.7520872516 0.7256828776
0.6473270196 0.6271161714 0.3526566046
0.6475295062 0.8782415162 0.8558440031
0.647643635 0.6152986459 0.6026060209
0.6429091309 0.7524712333 0.4944045635
0.6676124919 0.6137021931 0.6078568657
0.6775601046 0.8695921653 0.1028958689
0.6832959968 0.750876733 0.4870561419
0.6775785125 0.8654724971 0.3532125222
0.677530652 0.6358995904 0.353974608
0.6719015255 0.7502909982 0.2249142732
0.6675057262 0.618677685 0.8551021659
0.667568313 0.8804738167 0.3532833925
0.6632866425 0.7508181595 0.9878173832
0.6732342552 0.5007627569 0.2358862839
0.6618729181 0.4999062824 0.4742037674
0.6732342552 0.5007627569 0.7358863598
0.6775601046 0.8695921653 0.6028959448
0.6676124919 0.8870926202 0.1030136793
0.6817681436 0.5014526224 0.9693911058
0.6618729181 0.4999062824 0.9742047637
0.6817681436 0.5014526224 0.4693910299
0.677530652 0.6358995904 0.8539746839
0.6775785125 0.8654724971 0.8532125981
0.6832959968 0.750876733 0.9870534566
0.6719015255 0.7502975063 0.7249143491
0.6675057262 0.618677685 0.3551030104
0.6776116466 0.6329858851 0.6055117031
0.6676124919 0.8870926202 0.6030137552
0.6676124919 0.6137021931 0.1078567898
0.6632866425 0.7508181595 0.4878209889
0.6776116466 0.6329858851 0.1055116272
0.667568313 0.8804738167 0.8532834684
0.7019652581 0.5024789599 0.9629759632
0.7019652581 0.5024789599 0.4629722058
0.6875666225 0.88163227 0.8525775266
0.6875666225 0.88163227 0.3525774507
0.687614483 0.8884333022 0.6032512167
0.6874819463 0.6144154879 0.1053993392
0.6876328908 0.6236935275 0.3539847324
0.6874819463 0.6144161388 0.6053984947
0.6876328908 0.6236935275 0.8539848082
0.687614483 0.8884333022 0.1032511408
0.7076753792 0.8877694694 0.096678611
0.7074323954 0.8813003536 0.8473183983
0.6976799061 0.8740697827 0.1049566299
0.69745533 0.8614244186 0.3524255858
0.6932804252 0.5036315559 0.2340694272
0.7074323954 0.8813003536 0.3473192428
0.6932804252 0.5036315559 0.734069503
0.7076753792 0.8877694694 0.5966786869
0.6974516485 0.6294018388 0.094695163
0.6976173193 0.6399723999 0.3483822972
0.6919108797 0.752614413 0.2179975162
0.6976799061 0.8740697827 0.6049567058
0.6974516485 0.6294018388 0.5946952389
0.707590703 0.6177047144 0.0972244043
0.69745533 0.8614244186 0.8524256617
0.6976173193 0.6399723999 0.8483823731
0.6919108797 0.752614413 0.7179975921
0.7032022669 0.7520286781 0.9820281082
0.7076017478 0.6216805522 0.3491241344
0.707590703 0.6177047144 0.5972244802
0.7032022669 0.7520286781 0.4820298731
0.7076017478 0.6216805522 0.8491242103
0.71214481 0.7509027656 0.2164871505
0.7176892603 0.8735361131 0.5991030033
0.7176082657 0.8664031646 0.8491472201
0.7175567236 0.6274773745 0.5930044761
0.7176929419 0.6374159928 0.8446685854
0.71214481 0.7509027656 0.7164872264
0.7276773703 0.8864418038 0.0943573786
0.7276331914 0.8745709113 0.8433220498
0.7276331914 0.8745709113 0.3433219739
0.7221770989 0.4994585207 0.4626049688
0.7221770989 0.4994585207 0.9626078058
0.7131830138 0.501556753 0.7295577342
0.7330708761 0.5004197766 0.2302231028
0.7330708761 0.5004197766 0.7302231787
0.7131830138 0.501556753 0.2295576583
0.7276773703 0.8864418038 0.5943574545
0.7320253091 0.750245441 0.2105662593
0.7320253091 0.750245441 0.7105663352
0.7278209517 0.6148001205 0.0934194977
0.7230938108 0.7504862431 0.9817427863
0.7275779678 0.6225012318 0.3441208754
0.7278209517 0.6148001205 0.5934195735
0.7230938108 0.7504862431 0.481746392
0.7275779678 0.6225012318 0.8441200309
0.7176892603 0.8735361131 0.0991029274
0.7176082657 0.8664031646 0.3491471442
0.7175567236 0.6274773745 0.0930044002
0.7176929419 0.6374159928 0.3446685096
0.7379563247 0.625362221 0.1028010684
0.7375660779 0.6378012762 0.3485580924
0.7379563247 0.625362221 0.6028011443
0.7379489615 0.8735165887 0.6017905522
0.7375660779 0.6378012762 0.8485581683
0.7375844857 0.8642749948 0.8495420689
0.7431915228 0.7504667186 0.9775089762
0.7431915228 0.7504667186 0.4775052188
0.7478928927 0.8870991284 0.0927982321
0.7475320984 0.8775581589 0.8425986205
0.7578257791 0.8769919486 0.1001319273
0.7573692639 0.8681538609 0.3506391021
0.7475320984 0.8775581589 0.3425985446
0.7478928927 0.8870991284 0.5927983079
0.7579067737 0.6283885176 0.5967201046
0.7579067737 0.6283885176 0.0967200287
0.7578257791 0.8769919486 0.6001320032
0.7575570242 0.637851389 0.8459829073
0.7575570242 0.637851389 0.3459828314
0.7522224236 0.7513843698 0.2118456062
0.7573692639 0.8681538609 0.8506391779
0.7522224236 0.7513843698 0.7118456821
0.7477235403 0.6172745247 0.0928884306
0.7476499088 0.6247471994 0.3418732746
0.7477235403 0.6172745247 0.5928885065
0.7476499088 0.6247471994 0.8418733504
0.7379489615 0.8735165887 0.1017904764
0.7375844857 0.8642749948 0.349541993
0.7631125193 0.7534669825 0.9721246744
0.7631125193 0.7534669825 0.4721282801
0.7531060014 0.5028069714 0.2319331939
0.7531060014 0.5028069714 0.7319332698
0.7421496374 0.5010042098 0.4628847684
0.7421496374 0.5010042098 0.9628839239
0.7619491419 0.5024939287 0.4584889691
0.7619491419 0.5024939287 0.958484443
0.7732552554 0.5003729178 0.2159910584
0.7732552554 0.5003729178 0.7159911343
0.7820542171 0.5014578289 0.9609326897
0.7820542171 0.5014578289 0.4609326138
0.7830924209 0.7515275495 0.9661421168
0.7877091146 0.6216083116 0.3421917307
0.7875618516 0.6155166694 0.5890992466
0.7830924209 0.7515275495 0.4661392797
0.7877091146 0.6216083116 0.8421908862
0.7678212523 0.8858495608 0.0878778085
0.7674236423 0.8807341433 0.8383233928
0.7674236423 0.8807341433 0.3383233169
0.7678212523 0.8858495608 0.587876964
0.7676887156 0.6178752283 0.0940370817
0.7677623471 0.6224491664 0.3436284649
0.7676887156 0.6178752283 0.5940371576
0.7677623471 0.6224491664 0.8436276204
0.7879226459 0.8821984804 0.0842505378
0.7874771754 0.8822570539 0.8347863206
0.7779492621 0.8737248499 0.0972179616
0.7775295627 0.8690975448 0.3437039372
0.7874771754 0.8822570539 0.3347871652
0.7879226459 0.8821984804 0.5842506137
0.7776694625 0.63414564 0.5889565856
0.7776694625 0.63414564 0.0889565097
0.7779492621 0.8737248499 0.5972180374
0.7775516522 0.634443714 0.8412668111
0.7775516522 0.634443714 0.3412667353
0.7722244147 0.7502649655 0.2114249864
0.7775295627 0.8690975448 0.8437040131
0.7722244147 0.7502649655 0.7114250623
0.7875618516 0.6155166694 0.0890991707
0.7920901875 0.7500957532 0.210607677
0.7920901875 0.7500957532 0.7106077529
0.8079724974 0.8827516744 0.0841989958
0.8075123007 0.8806235045 0.8344025166
0.7979622979 0.8693318387 0.0943757865
0.7974247882 0.8620166616 0.3433118496
0.8075123007 0.8806235045 0.3344024407
0.8079724974 0.8827516744 0.5841990717
0.7975573248 0.6321157435 0.5881411169
0.7975573248 0.6321157435 0.0881410411
0.7979622979 0.8693318387 0.5943758624
0.7933161517 0.501549594 0.2198364624
0.7977450851 0.6338775037 0.8397417191
0.7933161517 0.501549594 0.7198365383
0.7977450851 0.6338775037 0.3397416433
0.7974247882 0.8620166616 0.8433119254
0.8075638427 0.6139879015 0.0943987963
0.8120222287 0.7501738512 0.2073522452
0.802100387 0.4980742341 0.4608267686
0.8033373959 0.7490674632 0.9701274205
0.8120222287 0.7501738512 0.7073523211
0.8077074241 0.6191762104 0.3390025673
0.802100387 0.4980742341 0.9608222425
0.8075638427 0.6139879015 0.5943988722
0.8033373959 0.7490674632 0.4701255039
0.8132997349 0.5002421037 0.219079899
0.8132997349 0.5002421037 0.7190790544
0.8077074241 0.6191762104 0.8390026432
0.8332685918 0.5008083141 0.2114884935
0.8332685918 0.5008083141 0.7114885694
0.8178980207 0.8670800138 0.0946666308
0.8174672766 0.8658369543 0.3437076188
0.817688171 0.6322042545 0.0848570771
0.8178980207 0.8670800138 0.5946667067
0.817688171 0.6322042545 0.584857153
0.8177102604 0.6334089158 0.3343601026
0.8174672766 0.8658369543 0.8437076946
0.8177102604 0.6334089158 0.8343601785
0.8279634438 0.8800312615 0.0800345835
0.8274369787 0.8821789559 0.8317600669
0.8377453857 0.8652121705 0.0888442217
0.8375649886 0.8717984332 0.3418677522
0.8274369787 0.8821789559 0.331759991
0.8279634438 0.8800312615 0.5800342912
0.8376864805 0.6331147468 0.0873264928
0.8377453857 0.8652121705 0.5888442976
0.8376423016 0.6326617785 0.3390200548
0.8319579515 0.7491585775 0.2167568258
0.8375649886 0.8717984332 0.8418678281
0.8278014545 0.6174697696 0.086344433
0.8234056553 0.7488592019 0.9643749613
0.8376864805 0.6331147468 0.5873265687
0.8376423016 0.6326617785 0.8390192103
0.8319579515 0.7491585775 0.7167569017
0.8275916048 0.6149459034 0.3356661409
0.8278014545 0.6174697696 0.5863445089
0.8234056553 0.7488592019 0.4643730446
0.8275916048 0.6149459034 0.8356662168
0.821921981 0.4979544838 0.9632612852
0.821921981 0.4979544838 0.4632621297
0.8421522297 0.5011779778 0.9688388697
0.8421522297 0.5011779778 0.4688351122
0.8576553374 0.6251520072 0.3421447906
0.8520556635 0.7502779818 0.2248249951
0.8574712587 0.8733083274 0.8473736219
0.8476525011 0.6206106099 0.0908295104
0.8676692185 0.6265798986 0.0914342089
0.8622241706 1.0005754882 0.4757426653
0.8631997877 0.7506294227 0.9554839603
0.8575964322 0.6348498235 0.5901245649
0.8576553374 0.6251520072 0.8421448665
0.8520556635 0.7502779818 0.7248250709
0.8475678249 0.6136377623 0.3380343134
0.8476525011 0.6206106099 0.5908286659
0.8676544922 0.6114445107 0.3407789267
0.8676692185 0.6265792478 0.5914342848
0.8631997877 0.7506294227 0.455482964
0.8475678249 0.6136377623 0.8380343892
0.8676581737 0.6114445107 0.8407790026
0.8622241706 1.0005754882 0.9757418208
0.8533184433 0.4991038257 0.2056062588
0.8533184433 0.4991038257 0.7056063347
0.843289836 0.7500371797 0.9573431551
0.843289836 0.7500371797 0.4573439996
0.8478402614 0.8792763144 0.0835500264
0.867794392 0.8757163483 0.0917839585
0.8475788696 0.8859992486 0.8348755988
0.8674925029 0.8882445654 0.8400647772
0.8578504608 0.8652251868 0.0953081451
0.8574712587 0.8733083274 0.347373546
0.8475788696 0.8859992486 0.3348755229
0.8478402614 0.8792763144 0.5835501943
0.8674925029 0.8882445654 0.3400647014
0.867794392 0.8757163483 0.5917840343
0.8575964322 0.6348498235 0.090124489
0.8578504608 0.8652251868 0.5953073006
0.8875865334 0.8695856572 0.102601343
0.8875607623 0.8892338064 0.8498025403
0.8776389206 0.862823674 0.0979607191
0.8775726523 0.8759506423 0.3488047579
0.8876049412 0.6136898276 0.3490008017
0.8875607623 0.8892338064 0.3498024644
0.8875865334 0.8695856572 0.6026014189
0.8875975781 0.6276049345 0.6011600827
0.8831907341 0.751468976 0.457431437
0.8775468813 0.6434074092 0.092777063
0.8776389206 0.862823674 0.597960795
0.877756731 0.6240280472 0.3459920354
0.8721681018 0.7512607147 0.2368250852
0.8775726523 0.8759506423 0.8488048337
0.8875975781 0.6276049345 0.1011600068
0.8923099927 0.749653198 0.2414463809
0.8831907341 0.751468976 0.9574351945
0.8775468813 0.6434074092 0.5927771389
0.877756731 0.6240280472 0.8459921113
0.8721681018 0.7512607147 0.7368251611
0.8923099927 0.749653198 0.7414464568
0.8876049412 0.6136891768 0.8490008775
0.8930941679 1.0001589656 0.2104742199
0.8930941679 1.0001589656 0.7104742958
0.8821525303 1.0014605986 0.9871639038
0.8821525303 1.0014605986 0.4871675095
0.8731915793 1.0016298108 0.2080186101
0.8731915793 1.0016298108 0.708018686
0.9176686738 0.8630709843 0.6032042766
0.9177828026 0.8737183418 0.8533193637
0.8976777275 0.6365582167 0.6016469709
0.8977624037 0.6209568443 0.8497933363
0.9177423053 0.6386115427 0.6021605504
0.9179705629 0.628564238 0.8517951921
0.9122898943 0.7504406859 0.7396664158
0.908015587 0.6142736099 0.8599784106
0.9077468321 0.8761523954 0.0994821295
0.9077357874 0.8869624569 0.8495982129
0.8976630012 0.8638194232 0.0973486574
0.902139795 1.0008943882 0.9885076783
0.8977624037 0.8773173568 0.3474048394
0.9176686738 0.8630709843 0.1032051211
0.9177828026 0.8737183418 0.3533192879
0.908015587 0.6142736099 0.3599792551
0.902139795 1.0008943882 0.4885076024
0.9077357874 0.8869624569 0.349598137
0.9077468321 0.8761523954 0.5994822054
0.907643748 0.626961277 0.6068702038
0.9131955615 1.0011351903 0.7116533199
0.9029534229 0.7501348022 0.459557546
0.9131955615 1.0011351903 0.211653244
0.8976777275 0.6365582167 0.101646895
0.8976630012 0.8638194232 0.5973487333
0.8977624037 0.6209568443 0.3497932604
0.9177423053 0.6386115427 0.1021604745
0.8977624037 0.8773173568 0.8474049152
0.907643748 0.626961277 0.106870128
0.9179705629 0.628564238 0.3517951163
0.9122898943 0.7504406859 0.2396663399
0.9029534229 0.7501348022 0.9595613034
0.9234634712 0.750362588 0.9706060252
0.9276972812 0.8784823183 0.1097721286
0.9277083259 0.8911602232 0.8583198615
0.9378363357 0.8656482175 0.1091398183
0.9377627043 0.8769984568 0.3570487222
0.9277525048 0.6137262733 0.3547155248
0.9277083259 0.8911602232 0.3583197856
0.9276972812 0.8784823183 0.6097722045
0.9278703151 0.6276309672 0.6050183722
0.9234634712 0.750362588 0.4706041085
0.9430604891 0.7533953927 0.4719064653
0.9379210119 0.6389395542 0.1119083619
0.9377111622 0.6286865915 0.3609079321
0.9321924829 0.7535515887 0.2442167653
0.9278703151 0.6276309672 0.1050182963
0.9430604891 0.7533953927 0.97190378
0.9378363357 0.8656482175 0.6091398942
0.9377627043 0.8769984568 0.8570487981
0.9379210119 0.6389395542 0.6119084377
0.9377111622 0.6286865915 0.860908008
0.9321924829 0.7535515887 0.7442168411
0.9277525048 0.6137262733 0.8547156006
0.9334074023 1.0030681152 0.2193670617
0.9334074023 1.0030681152 0.7193671376
0.9222669596 1.0010961413 0.9948675973
0.9222669596 1.0010961413 0.4948693622
0.9422210903 1.0025995274 0.9959720694
0.9422210903 1.0025995274 0.4959701528
0.9477139985 0.8754430054 0.1097712082
0.9477139985 0.8754430054 0.6097712841
0.9477508143 0.6272899394 0.6069972181
0.9477508143 0.6272899394 0.1069971423
0.9624145232 1.003692899 1.0031879543
0.9730248192 1.0023717416 0.2208037959
0.9624145232 1.003692899 0.5031860377
0.9730248192 1.0023717416 0.7208029514
0.9530743702 1.0020398252 0.2206086725
0.9530743702 1.0020398252 0.7206087484
0.9476109145 0.6160913403 0.3576920773
0.9476109145 0.6160913403 0.8576921532
0.9478060379 0.8904963904 0.8584155824
0.9478060379 0.8904963904 0.3584155066
0.967583453 0.8759961994 0.1130551721
0.9676718107 0.8917719906 0.8617345213
0.9577094717 0.8670735056 0.1114776177
0.957672656 0.8816843354 0.3639921706
0.9676534029 0.6145905576 0.3634472977
0.9676718107 0.8917719906 0.3617344454
0.967583453 0.8759961994 0.613055248
0.9676018608 0.6322120643 0.6142333517
0.962977804 0.7539485867 0.4716487551
0.9575879798 0.6424552647 0.1073551753
0.9676018608 0.6322120643 0.1142332758
0.962977804 0.7539485867 0.9716460698
0.9576137508 0.6238484219 0.3608775591
0.9577094717 0.8670735056 0.6114776936
0.9523454185 0.7539485867 0.2493350734
0.957672656 0.8816843354 0.8639913261
0.9575879798 0.6424552647 0.6073543308
0.9721301968 0.7524452007 0.2519149363
0.9576137508 0.6238484219 0.860877635
0.9523454185 0.7539485867 0.7493351493
0.9721301968 0.7524452007 0.7519150122
0.9676534029 0.6145905576 0.8634473736
0.9876222598 0.8759961994 0.1168637604
0.9876922097 0.8913619763 0.864830725
0.9776451945 0.8627911332 0.1113275936
0.9776304682 0.8828492968 0.3648278879
0.9974888779 0.8647631071 0.1171969428
0.9977244986 0.8789769388 0.3678808331
0.9931298944 1.0036343256 0.7313745909
0.9931298944 1.0036343256 0.2313745151
0.9876296229 0.6121226615 0.3680547875
0.9875302204 0.6272287626 0.6156065787
0.9832522316 0.7507140289 0.4734895421
0.9876922097 0.8913619763 0.3648315695
0.9876222598 0.8759961994 0.6168638362
0.9875302204 0.6272287626 0.1156065029
0.9821403962 0.5029143562 1.0056914246
0.9821403962 0.5029143562 0.5056867467
0.9832522316 0.7507140289 0.9734868567
0.9775016131 0.6438044073 0.1128802974
0.9776451945 0.8627911332 0.6113276695
0.9776415129 0.6243638685 0.3602866665
0.9776304682 0.8828492968 0.8648279638
0.9775016131 0.6438044073 0.6128803733
0.9975735541 0.6404566074 0.1176037567
0.9974888779 0.8647631071 0.6171970187
0.9776415129 0.6243638685 0.8602867424
0.9975183305 0.6294122519 0.3690791854
0.9977244986 0.8789769388 0.867880909
0.9975735541 0.6404566074 0.6176038326
0.9975183305 0.6294122519 0.8690792613
0.9920806458 0.7530309355 0.2581045825
0.9920806458 0.7530309355 0.7581046583
0.9876296229 0.6121226615 0.8680548633
