POSCAR file written by Ovito 3.15.2
1
276.1251980533 0.0 0.0
0.0 15.62 0.0
0.0 0.0 11.0450079221
Sr Ti O 
800 800 2400 
Direct
0.5024997364 2.5021505736e-05 0.2474991753
0.4824997364 2.5021505736e-05 0.2474991753
0.4624997364 2.5021505736e-05 0.2474991753
0.4424997364 2.5021505736e-05 0.2474991753
0.4224997364 2.5021505736e-05 0.2474991753
0.4024997364 2.5021505736e-05 0.2474991753
0.3824997364 2.5021505736e-05 0.2474991753
0.3624997364 2.5021505736e-05 0.2474991753
0.3424997364 2.5021505736e-05 0.2474991753
0.3224997364 2.5021505736e-05 0.2474991753
0.3024997364 2.5021505736e-05 0.2474991753
0.2824997364 2.5021505736e-05 0.2474991753
0.2624997364 2.5021505736e-05 0.2474991753
0.2424997364 2.5021505736e-05 0.2474991753
0.2224997364 2.5021505736e-05 0.2474991753
0.2024997364 2.5021505736e-05 0.2474991753
0.1824997364 2.5021505736e-05 0.2474991753
0.1624997364 2.5021505736e-05 0.2474991753
0.1424997364 2.5021505736e-05 0.2474991753
0.1224997364 2.5021505736e-05 0.2474991753
0.1024997364 2.5021505736e-05 0.2474991753
0.0824997364 2.5021505736e-05 0.2474991753
0.0624997364 2.5021505736e-05 0.2474991753
0.0424997364 2.5021505736e-05 0.2474991753
0.0224997364 2.5021505736e-05 0.2474991753
0.0024997364 2.5021505736e-05 0.2474991753
0.4924997364 2.5021505736e-05 0.4974991753
0.4724997364 2.5021505736e-05 0.4974991753
0.4524997364 2.5021505736e-05 0.4974991753
0.4324997364 2.5021505736e-05 0.4974991753
0.4124997364 2.5021505736e-05 0.4974991753
0.3924997364 2.5021505736e-05 0.4974991753
0.3724997364 2.5021505736e-05 0.4974991753
0.3524997364 2.5021505736e-05 0.4974991753
0.3324997364 2.5021505736e-05 0.4974991753
0.3124997364 2.5021505736e-05 0.4974991753
0.2924997364 2.5021505736e-05 0.4974991753
0.2724997364 2.5021505736e-05 0.4974991753
0.2524997364 2.5021505736e-05 0.4974991753
0.2324997364 2.5021505736e-05 0.4974991753
0.2124997364 2.5021505736e-05 0.4974991753
0.1924997364 2.5021505736e-05 0.4974991753
0.1724997364 2.5021505736e-05 0.4974991753
0.1524997364 2.5021505736e-05 0.4974991753
0.1324997364 2.5021505736e-05 0.4974991753
0.1124997364 2.5021505736e-05 0.4974991753
0.0924997364 2.5021505736e-05 0.4974991753
0.0724997364 2.5021505736e-05 0.4974991753
0.0524997364 2.5021505736e-05 0.4974991753
0.0324997364 2.5021505736e-05 0.4974991753
0.0124997364 2.5021505736e-05 0.4974991753
0.5024997364 2.5021505736e-05 0.7474991753
0.4824997364 2.5021505736e-05 0.7474991753
0.4624997364 2.5021505736e-05 0.7474991753
0.4424997364 2.5021505736e-05 0.7474991753
0.4224997364 2.5021505736e-05 0.7474991753
0.4024997364 2.5021505736e-05 0.7474991753
0.3824997364 2.5021505736e-05 0.7474991753
0.3624997364 2.5021505736e-05 0.7474991753
0.3424997364 2.5021505736e-05 0.7474991753
0.3224997364 2.5021505736e-05 0.7474991753
0.3024997364 2.5021505736e-05 0.7474991753
0.2824997364 2.5021505736e-05 0.7474991753
0.2624997364 2.5021505736e-05 0.7474991753
0.2424997364 2.5021505736e-05 0.7474991753
0.2224997364 2.5021505736e-05 0.7474991753
0.2024997364 2.5021505736e-05 0.7474991753
0.1824997364 2.5021505736e-05 0.7474991753
0.1624997364 2.5021505736e-05 0.7474991753
0.1424997364 2.5021505736e-05 0.7474991753
0.1224997364 2.5021505736e-05 0.7474991753
0.1024997364 2.5021505736e-05 0.7474991753
0.0824997364 2.5021505736e-05 0.7474991753
0.0624997364 2.5021505736e-05 0.7474991753
0.0424997364 2.5021505736e-05 0.7474991753
0.0224997364 2.5021505736e-05 0.7474991753
0.0024997364 2.5021505736e-05 0.7474991753
0.4924997364 2.5021505736e-05 0.9974991753
0.4724997364 2.5021505736e-05 0.9974991753
0.4524997364 2.5021505736e-05 0.9974991753
0.4324997364 2.5021505736e-05 0.9974991753
0.4124997364 2.5021505736e-05 0.9974991753
0.3924997364 2.5021505736e-05 0.9974991753
0.3724997364 2.5021505736e-05 0.9974991753
0.3524997364 2.5021505736e-05 0.9974991753
0.3324997364 2.5021505736e-05 0.9974991753
0.3124997364 2.5021505736e-05 0.9974991753
0.2924997364 2.5021505736e-05 0.9974991753
0.2724997364 2.5021505736e-05 0.9974991753
0.2524997364 2.5021505736e-05 0.9974991753
0.2324997364 2.5021505736e-05 0.9974991753
0.2124997364 2.5021505736e-05 0.9974991753
0.1924997364 2.5021505736e-05 0.9974991753
0.1724997364 2.5021505736e-05 0.9974991753
0.1524997364 2.5021505736e-05 0.9974991753
0.1324997364 2.5021505736e-05 0.9974991753
0.1124997364 2.5021505736e-05 0.9974991753
0.0924997364 2.5021505736e-05 0.9974991753
0.0724997364 2.5021505736e-05 0.9974991753
0.0524997364 2.5021505736e-05 0.9974991753
0.0324997364 2.5021505736e-05 0.9974991753
0.0124997364 2.5021505736e-05 0.9974991753
0.5024997364 0.2500250215 0.2474991753
0.4824997364 0.2500250215 0.2474991753
0.4624997364 0.2500250215 0.2474991753
0.4424997364 0.2500250215 0.2474991753
0.4224997364 0.2500250215 0.2474991753
0.4024997364 0.2500250215 0.2474991753
0.3824997364 0.2500250215 0.2474991753
0.3624997364 0.2500250215 0.2474991753
0.3424997364 0.2500250215 0.2474991753
0.3224997364 0.2500250215 0.2474991753
0.3024997364 0.2500250215 0.2474991753
0.2824997364 0.2500250215 0.2474991753
0.2624997364 0.2500250215 0.2474991753
0.2424997364 0.2500250215 0.2474991753
0.2224997364 0.2500250215 0.2474991753
0.2024997364 0.2500250215 0.2474991753
0.1824997364 0.2500250215 0.2474991753
0.1624997364 0.2500250215 0.2474991753
0.1424997364 0.2500250215 0.2474991753
0.1224997364 0.2500250215 0.2474991753
0.1024997364 0.2500250215 0.2474991753
0.0824997364 0.2500250215 0.2474991753
0.0624997364 0.2500250215 0.2474991753
0.0424997364 0.2500250215 0.2474991753
0.0224997364 0.2500250215 0.2474991753
0.0024997364 0.2500250215 0.2474991753
0.4924997364 0.2500250215 0.4974991753
0.4724997364 0.2500250215 0.4974991753
0.4524997364 0.2500250215 0.4974991753
0.4324997364 0.2500250215 0.4974991753
0.4124997364 0.2500250215 0.4974991753
0.3924997364 0.2500250215 0.4974991753
0.3724997364 0.2500250215 0.4974991753
0.3524997364 0.2500250215 0.4974991753
0.3324997364 0.2500250215 0.4974991753
0.3124997364 0.2500250215 0.4974991753
0.2924997364 0.2500250215 0.4974991753
0.2724997364 0.2500250215 0.4974991753
0.2524997364 0.2500250215 0.4974991753
0.2324997364 0.2500250215 0.4974991753
0.2124997364 0.2500250215 0.4974991753
0.1924997364 0.2500250215 0.4974991753
0.1724997364 0.2500250215 0.4974991753
0.1524997364 0.2500250215 0.4974991753
0.1324997364 0.2500250215 0.4974991753
0.1124997364 0.2500250215 0.4974991753
0.0924997364 0.2500250215 0.4974991753
0.0724997364 0.2500250215 0.4974991753
0.0524997364 0.2500250215 0.4974991753
0.0324997364 0.2500250215 0.4974991753
0.0124997364 0.2500250215 0.4974991753
0.5024997364 0.2500250215 0.7474991753
0.4824997364 0.2500250215 0.7474991753
0.4624997364 0.2500250215 0.7474991753
0.4424997364 0.2500250215 0.7474991753
0.4224997364 0.2500250215 0.7474991753
0.4024997364 0.2500250215 0.7474991753
0.3824997364 0.2500250215 0.7474991753
0.3624997364 0.2500250215 0.7474991753
0.3424997364 0.2500250215 0.7474991753
0.3224997364 0.2500250215 0.7474991753
0.3024997364 0.2500250215 0.7474991753
0.2824997364 0.2500250215 0.7474991753
0.2624997364 0.2500250215 0.7474991753
0.2424997364 0.2500250215 0.7474991753
0.2224997364 0.2500250215 0.7474991753
0.2024997364 0.2500250215 0.7474991753
0.1824997364 0.2500250215 0.7474991753
0.1624997364 0.2500250215 0.7474991753
0.1424997364 0.2500250215 0.7474991753
0.1224997364 0.2500250215 0.7474991753
0.1024997364 0.2500250215 0.7474991753
0.0824997364 0.2500250215 0.7474991753
0.0624997364 0.2500250215 0.7474991753
0.0424997364 0.2500250215 0.7474991753
0.0224997364 0.2500250215 0.7474991753
0.0024997364 0.2500250215 0.7474991753
0.4924997364 0.2500250215 0.9974991753
0.4724997364 0.2500250215 0.9974991753
0.4524997364 0.2500250215 0.9974991753
0.4324997364 0.2500250215 0.9974991753
0.4124997364 0.2500250215 0.9974991753
0.3924997364 0.2500250215 0.9974991753
0.3724997364 0.2500250215 0.9974991753
0.3524997364 0.2500250215 0.9974991753
0.3324997364 0.2500250215 0.9974991753
0.3124997364 0.2500250215 0.9974991753
0.2924997364 0.2500250215 0.9974991753
0.2724997364 0.2500250215 0.9974991753
0.2524997364 0.2500250215 0.9974991753
0.2324997364 0.2500250215 0.9974991753
0.2124997364 0.2500250215 0.9974991753
0.1924997364 0.2500250215 0.9974991753
0.1724997364 0.2500250215 0.9974991753
0.1524997364 0.2500250215 0.9974991753
0.1324997364 0.2500250215 0.9974991753
0.1124997364 0.2500250215 0.9974991753
0.0924997364 0.2500250215 0.9974991753
0.0724997364 0.2500250215 0.9974991753
0.0524997364 0.2500250215 0.9974991753
0.0324997364 0.2500250215 0.9974991753
0.0124997364 0.2500250215 0.9974991753
0.5024997364 0.5000250215 0.2474991753
0.4824997364 0.5000250215 0.2474991753
0.4624997364 0.5000250215 0.2474991753
0.4424997364 0.5000250215 0.2474991753
0.4224997364 0.5000250215 0.2474991753
0.4024997364 0.5000250215 0.2474991753
0.3824997364 0.5000250215 0.2474991753
0.3624997364 0.5000250215 0.2474991753
0.3424997364 0.5000250215 0.2474991753
0.3224997364 0.5000250215 0.2474991753
0.3024997364 0.5000250215 0.2474991753
0.2824997364 0.5000250215 0.2474991753
0.2624997364 0.5000250215 0.2474991753
0.2424997364 0.5000250215 0.2474991753
0.2224997364 0.5000250215 0.2474991753
0.2024997364 0.5000250215 0.2474991753
0.1824997364 0.5000250215 0.2474991753
0.1624997364 0.5000250215 0.2474991753
0.1424997364 0.5000250215 0.2474991753
0.1224997364 0.5000250215 0.2474991753
0.1024997364 0.5000250215 0.2474991753
0.0824997364 0.5000250215 0.2474991753
0.0624997364 0.5000250215 0.2474991753
0.0424997364 0.5000250215 0.2474991753
0.0224997364 0.5000250215 0.2474991753
0.0024997364 0.5000250215 0.2474991753
0.4924997364 0.5000250215 0.4974991753
0.4724997364 0.5000250215 0.4974991753
0.4524997364 0.5000250215 0.4974991753
0.4324997364 0.5000250215 0.4974991753
0.4124997364 0.5000250215 0.4974991753
0.3924997364 0.5000250215 0.4974991753
0.3724997364 0.5000250215 0.4974991753
0.3524997364 0.5000250215 0.4974991753
0.3324997364 0.5000250215 0.4974991753
0.3124997364 0.5000250215 0.4974991753
0.2924997364 0.5000250215 0.4974991753
0.2724997364 0.5000250215 0.4974991753
0.2524997364 0.5000250215 0.4974991753
0.2324997364 0.5000250215 0.4974991753
0.2124997364 0.5000250215 0.4974991753
0.1924997364 0.5000250215 0.4974991753
0.1724997364 0.5000250215 0.4974991753
0.1524997364 0.5000250215 0.4974991753
0.1324997364 0.5000250215 0.4974991753
0.1124997364 0.5000250215 0.4974991753
0.0924997364 0.5000250215 0.4974991753
0.0724997364 0.5000250215 0.4974991753
0.0524997364 0.5000250215 0.4974991753
0.0324997364 0.5000250215 0.4974991753
0.0124997364 0.5000250215 0.4974991753
0.5024997364 0.5000250215 0.7474991753
0.4824997364 0.5000250215 0.7474991753
0.4624997364 0.5000250215 0.7474991753
0.4424997364 0.5000250215 0.7474991753
0.4224997364 0.5000250215 0.7474991753
0.4024997364 0.5000250215 0.7474991753
0.3824997364 0.5000250215 0.7474991753
0.3624997364 0.5000250215 0.7474991753
0.3424997364 0.5000250215 0.7474991753
0.3224997364 0.5000250215 0.7474991753
0.3024997364 0.5000250215 0.7474991753
0.2824997364 0.5000250215 0.7474991753
0.2624997364 0.5000250215 0.7474991753
0.2424997364 0.5000250215 0.7474991753
0.2224997364 0.5000250215 0.7474991753
0.2024997364 0.5000250215 0.7474991753
0.1824997364 0.5000250215 0.7474991753
0.1624997364 0.5000250215 0.7474991753
0.1424997364 0.5000250215 0.7474991753
0.1224997364 0.5000250215 0.7474991753
0.1024997364 0.5000250215 0.7474991753
0.0824997364 0.5000250215 0.7474991753
0.0624997364 0.5000250215 0.7474991753
0.0424997364 0.5000250215 0.7474991753
0.0224997364 0.5000250215 0.7474991753
0.0024997364 0.5000250215 0.7474991753
0.4924997364 0.5000250215 0.9974991753
0.4724997364 0.5000250215 0.9974991753
0.4524997364 0.5000250215 0.9974991753
0.4324997364 0.5000250215 0.9974991753
0.4124997364 0.5000250215 0.9974991753
0.3924997364 0.5000250215 0.9974991753
0.3724997364 0.5000250215 0.9974991753
0.3524997364 0.5000250215 0.9974991753
0.3324997364 0.5000250215 0.9974991753
0.3124997364 0.5000250215 0.9974991753
0.2924997364 0.5000250215 0.9974991753
0.2724997364 0.5000250215 0.9974991753
0.2524997364 0.5000250215 0.9974991753
0.2324997364 0.5000250215 0.9974991753
0.2124997364 0.5000250215 0.9974991753
0.1924997364 0.5000250215 0.9974991753
0.1724997364 0.5000250215 0.9974991753
0.1524997364 0.5000250215 0.9974991753
0.1324997364 0.5000250215 0.9974991753
0.1124997364 0.5000250215 0.9974991753
0.0924997364 0.5000250215 0.9974991753
0.0724997364 0.5000250215 0.9974991753
0.0524997364 0.5000250215 0.9974991753
0.0324997364 0.5000250215 0.9974991753
0.0124997364 0.5000250215 0.9974991753
0.5024997364 0.7500250215 0.2474991753
0.4824997364 0.7500250215 0.2474991753
0.4624997364 0.7500250215 0.2474991753
0.4424997364 0.7500250215 0.2474991753
0.4224997364 0.7500250215 0.2474991753
0.4024997364 0.7500250215 0.2474991753
0.3824997364 0.7500250215 0.2474991753
0.3624997364 0.7500250215 0.2474991753
0.3424997364 0.7500250215 0.2474991753
0.3224997364 0.7500250215 0.2474991753
0.3024997364 0.7500250215 0.2474991753
0.2824997364 0.7500250215 0.2474991753
0.2624997364 0.7500250215 0.2474991753
0.2424997364 0.7500250215 0.2474991753
0.2224997364 0.7500250215 0.2474991753
0.2024997364 0.7500250215 0.2474991753
0.1824997364 0.7500250215 0.2474991753
0.1624997364 0.7500250215 0.2474991753
0.1424997364 0.7500250215 0.2474991753
0.1224997364 0.7500250215 0.2474991753
0.1024997364 0.7500250215 0.2474991753
0.0824997364 0.7500250215 0.2474991753
0.0624997364 0.7500250215 0.2474991753
0.0424997364 0.7500250215 0.2474991753
0.0224997364 0.7500250215 0.2474991753
0.0024997364 0.7500250215 0.2474991753
0.4924997364 0.7500250215 0.4974991753
0.4724997364 0.7500250215 0.4974991753
0.4524997364 0.7500250215 0.4974991753
0.4324997364 0.7500250215 0.4974991753
0.4124997364 0.7500250215 0.4974991753
0.3924997364 0.7500250215 0.4974991753
0.3724997364 0.7500250215 0.4974991753
0.3524997364 0.7500250215 0.4974991753
0.3324997364 0.7500250215 0.4974991753
0.3124997364 0.7500250215 0.4974991753
0.2924997364 0.7500250215 0.4974991753
0.2724997364 0.7500250215 0.4974991753
0.2524997364 0.7500250215 0.4974991753
0.2324997364 0.7500250215 0.4974991753
0.2124997364 0.7500250215 0.4974991753
0.1924997364 0.7500250215 0.4974991753
0.1724997364 0.7500250215 0.4974991753
0.1524997364 0.7500250215 0.4974991753
0.1324997364 0.7500250215 0.4974991753
0.1124997364 0.7500250215 0.4974991753
0.0924997364 0.7500250215 0.4974991753
0.0724997364 0.7500250215 0.4974991753
0.0524997364 0.7500250215 0.4974991753
0.0324997364 0.7500250215 0.4974991753
0.0124997364 0.7500250215 0.4974991753
0.5024997364 0.7500250215 0.7474991753
0.4824997364 0.7500250215 0.7474991753
0.4624997364 0.7500250215 0.7474991753
0.4424997364 0.7500250215 0.7474991753
0.4224997364 0.7500250215 0.7474991753
0.4024997364 0.7500250215 0.7474991753
0.3824997364 0.7500250215 0.7474991753
0.3624997364 0.7500250215 0.7474991753
0.3424997364 0.7500250215 0.7474991753
0.3224997364 0.7500250215 0.7474991753
0.3024997364 0.7500250215 0.7474991753
0.2824997364 0.7500250215 0.7474991753
0.2624997364 0.7500250215 0.7474991753
0.2424997364 0.7500250215 0.7474991753
0.2224997364 0.7500250215 0.7474991753
0.2024997364 0.7500250215 0.7474991753
0.1824997364 0.7500250215 0.7474991753
0.1624997364 0.7500250215 0.7474991753
0.1424997364 0.7500250215 0.7474991753
0.1224997364 0.7500250215 0.7474991753
0.1024997364 0.7500250215 0.7474991753
0.0824997364 0.7500250215 0.7474991753
0.0624997364 0.7500250215 0.7474991753
0.0424997364 0.7500250215 0.7474991753
0.0224997364 0.7500250215 0.7474991753
0.0024997364 0.7500250215 0.7474991753
0.4924997364 0.7500250215 0.9974991753
0.4724997364 0.7500250215 0.9974991753
0.4524997364 0.7500250215 0.9974991753
0.4324997364 0.7500250215 0.9974991753
0.4124997364 0.7500250215 0.9974991753
0.3924997364 0.7500250215 0.9974991753
0.3724997364 0.7500250215 0.9974991753
0.3524997364 0.7500250215 0.9974991753
0.3324997364 0.7500250215 0.9974991753
0.3124997364 0.7500250215 0.9974991753
0.2924997364 0.7500250215 0.9974991753
0.2724997364 0.7500250215 0.9974991753
0.2524997364 0.7500250215 0.9974991753
0.2324997364 0.7500250215 0.9974991753
0.2124997364 0.7500250215 0.9974991753
0.1924997364 0.7500250215 0.9974991753
0.1724997364 0.7500250215 0.9974991753
0.1524997364 0.7500250215 0.9974991753
0.1324997364 0.7500250215 0.9974991753
0.1124997364 0.7500250215 0.9974991753
0.0924997364 0.7500250215 0.9974991753
0.0724997364 0.7500250215 0.9974991753
0.0524997364 0.7500250215 0.9974991753
0.0324997364 0.7500250215 0.9974991753
0.0124997364 0.7500250215 0.9974991753
0.5224997364 2.5021505736e-05 0.2474991753
0.5424997364 2.5021505736e-05 0.2474991753
0.5624997364 2.5021505736e-05 0.2474991753
0.5824997364 2.5021505736e-05 0.2474991753
0.6024997364 2.5021505736e-05 0.2474991753
0.6224997364 2.5021505736e-05 0.2474991753
0.6424997364 2.5021505736e-05 0.2474991753
0.6624997364 2.5021505736e-05 0.2474991753
0.6824997364 2.5021505736e-05 0.2474991753
0.7024997364 2.5021505736e-05 0.2474991753
0.7224997364 2.5021505736e-05 0.2474991753
0.7424997364 2.5021505736e-05 0.2474991753
0.7624997364 2.5021505736e-05 0.2474991753
0.7824997364 2.5021505736e-05 0.2474991753
0.8024997364 2.5021505736e-05 0.2474991753
0.8224997364 2.5021505736e-05 0.2474991753
0.8424997364 2.5021505736e-05 0.2474991753
0.8624997364 2.5021505736e-05 0.2474991753
0.8824997364 2.5021505736e-05 0.2474991753
0.9024997364 2.5021505736e-05 0.2474991753
0.9224997364 2.5021505736e-05 0.2474991753
0.9424997364 2.5021505736e-05 0.2474991753
0.9624997364 2.5021505736e-05 0.2474991753
0.9824997364 2.5021505736e-05 0.2474991753
0.5124997364 2.5021505736e-05 0.4974991753
0.5324997364 2.5021505736e-05 0.4974991753
0.5524997364 2.5021505736e-05 0.4974991753
0.5724997364 2.5021505736e-05 0.4974991753
0.5924997364 2.5021505736e-05 0.4974991753
0.6124997364 2.5021505736e-05 0.4974991753
0.6324997364 2.5021505736e-05 0.4974991753
0.6524997364 2.5021505736e-05 0.4974991753
0.6724997364 2.5021505736e-05 0.4974991753
0.6924997364 2.5021505736e-05 0.4974991753
0.7124997364 2.5021505736e-05 0.4974991753
0.7324997364 2.5021505736e-05 0.4974991753
0.7524997364 2.5021505736e-05 0.4974991753
0.7724997364 2.5021505736e-05 0.4974991753
0.7924997364 2.5021505736e-05 0.4974991753
0.8124997364 2.5021505736e-05 0.4974991753
0.8324997364 2.5021505736e-05 0.4974991753
0.8524997364 2.5021505736e-05 0.4974991753
0.8724997364 2.5021505736e-05 0.4974991753
0.8924997364 2.5021505736e-05 0.4974991753
0.9124997364 2.5021505736e-05 0.4974991753
0.9324997364 2.5021505736e-05 0.4974991753
0.9524997364 2.5021505736e-05 0.4974991753
0.9724997364 2.5021505736e-05 0.4974991753
0.9924997364 2.5021505736e-05 0.4974991753
0.5224997364 2.5021505736e-05 0.7474991753
0.5424997364 2.5021505736e-05 0.7474991753
0.5624997364 2.5021505736e-05 0.7474991753
0.5824997364 2.5021505736e-05 0.7474991753
0.6024997364 2.5021505736e-05 0.7474991753
0.6224997364 2.5021505736e-05 0.7474991753
0.6424997364 2.5021505736e-05 0.7474991753
0.6624997364 2.5021505736e-05 0.7474991753
0.6824997364 2.5021505736e-05 0.7474991753
0.7024997364 2.5021505736e-05 0.7474991753
0.7224997364 2.5021505736e-05 0.7474991753
0.7424997364 2.5021505736e-05 0.7474991753
0.7624997364 2.5021505736e-05 0.7474991753
0.7824997364 2.5021505736e-05 0.7474991753
0.8024997364 2.5021505736e-05 0.7474991753
0.8224997364 2.5021505736e-05 0.7474991753
0.8424997364 2.5021505736e-05 0.7474991753
0.8624997364 2.5021505736e-05 0.7474991753
0.8824997364 2.5021505736e-05 0.7474991753
0.9024997364 2.5021505736e-05 0.7474991753
0.9224997364 2.5021505736e-05 0.7474991753
0.9424997364 2.5021505736e-05 0.7474991753
0.9624997364 2.5021505736e-05 0.7474991753
0.9824997364 2.5021505736e-05 0.7474991753
0.5124997364 2.5021505736e-05 0.9974991753
0.5324997364 2.5021505736e-05 0.9974991753
0.5524997364 2.5021505736e-05 0.9974991753
0.5724997364 2.5021505736e-05 0.9974991753
0.5924997364 2.5021505736e-05 0.9974991753
0.6124997364 2.5021505736e-05 0.9974991753
0.6324997364 2.5021505736e-05 0.9974991753
0.6524997364 2.5021505736e-05 0.9974991753
0.6724997364 2.5021505736e-05 0.9974991753
0.6924997364 2.5021505736e-05 0.9974991753
0.7124997364 2.5021505736e-05 0.9974991753
0.7324997364 2.5021505736e-05 0.9974991753
0.7524997364 2.5021505736e-05 0.9974991753
0.7724997364 2.5021505736e-05 0.9974991753
0.7924997364 2.5021505736e-05 0.9974991753
0.8124997364 2.5021505736e-05 0.9974991753
0.8324997364 2.5021505736e-05 0.9974991753
0.8524997364 2.5021505736e-05 0.9974991753
0.8724997364 2.5021505736e-05 0.9974991753
0.8924997364 2.5021505736e-05 0.9974991753
0.9124997364 2.5021505736e-05 0.9974991753
0.9324997364 2.5021505736e-05 0.9974991753
0.9524997364 2.5021505736e-05 0.9974991753
0.9724997364 2.5021505736e-05 0.9974991753
0.9924997364 2.5021505736e-05 0.9974991753
0.5224997364 0.2500250215 0.2474991753
0.5424997364 0.2500250215 0.2474991753
0.5624997364 0.2500250215 0.2474991753
0.5824997364 0.2500250215 0.2474991753
0.6024997364 0.2500250215 0.2474991753
0.6224997364 0.2500250215 0.2474991753
0.6424997364 0.2500250215 0.2474991753
0.6624997364 0.2500250215 0.2474991753
0.6824997364 0.2500250215 0.2474991753
0.7024997364 0.2500250215 0.2474991753
0.7224997364 0.2500250215 0.2474991753
0.7424997364 0.2500250215 0.2474991753
0.7624997364 0.2500250215 0.2474991753
0.7824997364 0.2500250215 0.2474991753
0.8024997364 0.2500250215 0.2474991753
0.8224997364 0.2500250215 0.2474991753
0.8424997364 0.2500250215 0.2474991753
0.8624997364 0.2500250215 0.2474991753
0.8824997364 0.2500250215 0.2474991753
0.9024997364 0.2500250215 0.2474991753
0.9224997364 0.2500250215 0.2474991753
0.9424997364 0.2500250215 0.2474991753
0.9624997364 0.2500250215 0.2474991753
0.9824997364 0.2500250215 0.2474991753
0.5124997364 0.2500250215 0.4974991753
0.5324997364 0.2500250215 0.4974991753
0.5524997364 0.2500250215 0.4974991753
0.5724997364 0.2500250215 0.4974991753
0.5924997364 0.2500250215 0.4974991753
0.6124997364 0.2500250215 0.4974991753
0.6324997364 0.2500250215 0.4974991753
0.6524997364 0.2500250215 0.4974991753
0.6724997364 0.2500250215 0.4974991753
0.6924997364 0.2500250215 0.4974991753
0.7124997364 0.2500250215 0.4974991753
0.7324997364 0.2500250215 0.4974991753
0.7524997364 0.2500250215 0.4974991753
0.7724997364 0.2500250215 0.4974991753
0.7924997364 0.2500250215 0.4974991753
0.8124997364 0.2500250215 0.4974991753
0.8324997364 0.2500250215 0.4974991753
0.8524997364 0.2500250215 0.4974991753
0.8724997364 0.2500250215 0.4974991753
0.8924997364 0.2500250215 0.4974991753
0.9124997364 0.2500250215 0.4974991753
0.9324997364 0.2500250215 0.4974991753
0.9524997364 0.2500250215 0.4974991753
0.9724997364 0.2500250215 0.4974991753
0.9924997364 0.2500250215 0.4974991753
0.5224997364 0.2500250215 0.7474991753
0.5424997364 0.2500250215 0.7474991753
0.5624997364 0.2500250215 0.7474991753
0.5824997364 0.2500250215 0.7474991753
0.6024997364 0.2500250215 0.7474991753
0.6224997364 0.2500250215 0.7474991753
0.6424997364 0.2500250215 0.7474991753
0.6624997364 0.2500250215 0.7474991753
0.6824997364 0.2500250215 0.7474991753
0.7024997364 0.2500250215 0.7474991753
0.7224997364 0.2500250215 0.7474991753
0.7424997364 0.2500250215 0.7474991753
0.7624997364 0.2500250215 0.7474991753
0.7824997364 0.2500250215 0.7474991753
0.8024997364 0.2500250215 0.7474991753
0.8224997364 0.2500250215 0.7474991753
0.8424997364 0.2500250215 0.7474991753
0.8624997364 0.2500250215 0.7474991753
0.8824997364 0.2500250215 0.7474991753
0.9024997364 0.2500250215 0.7474991753
0.9224997364 0.2500250215 0.7474991753
0.9424997364 0.2500250215 0.7474991753
0.9624997364 0.2500250215 0.7474991753
0.9824997364 0.2500250215 0.7474991753
0.5124997364 0.2500250215 0.9974991753
0.5324997364 0.2500250215 0.9974991753
0.5524997364 0.2500250215 0.9974991753
0.5724997364 0.2500250215 0.9974991753
0.5924997364 0.2500250215 0.9974991753
0.6124997364 0.2500250215 0.9974991753
0.6324997364 0.2500250215 0.9974991753
0.6524997364 0.2500250215 0.9974991753
0.6724997364 0.2500250215 0.9974991753
0.6924997364 0.2500250215 0.9974991753
0.7124997364 0.2500250215 0.9974991753
0.7324997364 0.2500250215 0.9974991753
0.7524997364 0.2500250215 0.9974991753
0.7724997364 0.2500250215 0.9974991753
0.7924997364 0.2500250215 0.9974991753
0.8124997364 0.2500250215 0.9974991753
0.8324997364 0.2500250215 0.9974991753
0.8524997364 0.2500250215 0.9974991753
0.8724997364 0.2500250215 0.9974991753
0.8924997364 0.2500250215 0.9974991753
0.9124997364 0.2500250215 0.9974991753
0.9324997364 0.2500250215 0.9974991753
0.9524997364 0.2500250215 0.9974991753
0.9724997364 0.2500250215 0.9974991753
0.9924997364 0.2500250215 0.9974991753
0.5224997364 0.5000250215 0.2474991753
0.5424997364 0.5000250215 0.2474991753
0.5624997364 0.5000250215 0.2474991753
0.5824997364 0.5000250215 0.2474991753
0.6024997364 0.5000250215 0.2474991753
0.6224997364 0.5000250215 0.2474991753
0.6424997364 0.5000250215 0.2474991753
0.6624997364 0.5000250215 0.2474991753
0.6824997364 0.5000250215 0.2474991753
0.7024997364 0.5000250215 0.2474991753
0.7224997364 0.5000250215 0.2474991753
0.7424997364 0.5000250215 0.2474991753
0.7624997364 0.5000250215 0.2474991753
0.7824997364 0.5000250215 0.2474991753
0.8024997364 0.5000250215 0.2474991753
0.8224997364 0.5000250215 0.2474991753
0.8424997364 0.5000250215 0.2474991753
0.8624997364 0.5000250215 0.2474991753
0.8824997364 0.5000250215 0.2474991753
0.9024997364 0.5000250215 0.2474991753
0.9224997364 0.5000250215 0.2474991753
0.9424997364 0.5000250215 0.2474991753
0.9624997364 0.5000250215 0.2474991753
0.9824997364 0.5000250215 0.2474991753
0.5124997364 0.5000250215 0.4974991753
0.5324997364 0.5000250215 0.4974991753
0.5524997364 0.5000250215 0.4974991753
0.5724997364 0.5000250215 0.4974991753
0.5924997364 0.5000250215 0.4974991753
0.6124997364 0.5000250215 0.4974991753
0.6324997364 0.5000250215 0.4974991753
0.6524997364 0.5000250215 0.4974991753
0.6724997364 0.5000250215 0.4974991753
0.6924997364 0.5000250215 0.4974991753
0.7124997364 0.5000250215 0.4974991753
0.7324997364 0.5000250215 0.4974991753
0.7524997364 0.5000250215 0.4974991753
0.7724997364 0.5000250215 0.4974991753
0.7924997364 0.5000250215 0.4974991753
0.8124997364 0.5000250215 0.4974991753
0.8324997364 0.5000250215 0.4974991753
0.8524997364 0.5000250215 0.4974991753
0.8724997364 0.5000250215 0.4974991753
0.8924997364 0.5000250215 0.4974991753
0.9124997364 0.5000250215 0.4974991753
0.9324997364 0.5000250215 0.4974991753
0.9524997364 0.5000250215 0.4974991753
0.9724997364 0.5000250215 0.4974991753
0.9924997364 0.5000250215 0.4974991753
0.5224997364 0.5000250215 0.7474991753
0.5424997364 0.5000250215 0.7474991753
0.5624997364 0.5000250215 0.7474991753
0.5824997364 0.5000250215 0.7474991753
0.6024997364 0.5000250215 0.7474991753
0.6224997364 0.5000250215 0.7474991753
0.6424997364 0.5000250215 0.7474991753
0.6624997364 0.5000250215 0.7474991753
0.6824997364 0.5000250215 0.7474991753
0.7024997364 0.5000250215 0.7474991753
0.7224997364 0.5000250215 0.7474991753
0.7424997364 0.5000250215 0.7474991753
0.7624997364 0.5000250215 0.7474991753
0.7824997364 0.5000250215 0.7474991753
0.8024997364 0.5000250215 0.7474991753
0.8224997364 0.5000250215 0.7474991753
0.8424997364 0.5000250215 0.7474991753
0.8624997364 0.5000250215 0.7474991753
0.8824997364 0.5000250215 0.7474991753
0.9024997364 0.5000250215 0.7474991753
0.9224997364 0.5000250215 0.7474991753
0.9424997364 0.5000250215 0.7474991753
0.9624997364 0.5000250215 0.7474991753
0.9824997364 0.5000250215 0.7474991753
0.5124997364 0.5000250215 0.9974991753
0.5324997364 0.5000250215 0.9974991753
0.5524997364 0.5000250215 0.9974991753
0.5724997364 0.5000250215 0.9974991753
0.5924997364 0.5000250215 0.9974991753
0.6124997364 0.5000250215 0.9974991753
0.6324997364 0.5000250215 0.9974991753
0.6524997364 0.5000250215 0.9974991753
0.6724997364 0.5000250215 0.9974991753
0.6924997364 0.5000250215 0.9974991753
0.7124997364 0.5000250215 0.9974991753
0.7324997364 0.5000250215 0.9974991753
0.7524997364 0.5000250215 0.9974991753
0.7724997364 0.5000250215 0.9974991753
0.7924997364 0.5000250215 0.9974991753
0.8124997364 0.5000250215 0.9974991753
0.8324997364 0.5000250215 0.9974991753
0.8524997364 0.5000250215 0.9974991753
0.8724997364 0.5000250215 0.9974991753
0.8924997364 0.5000250215 0.9974991753
0.9124997364 0.5000250215 0.9974991753
0.9324997364 0.5000250215 0.9974991753
0.9524997364 0.5000250215 0.9974991753
0.9724997364 0.5000250215 0.9974991753
0.9924997364 0.5000250215 0.9974991753
0.5224997364 0.7500250215 0.2474991753
0.5424997364 0.7500250215 0.2474991753
0.5624997364 0.7500250215 0.2474991753
0.5824997364 0.7500250215 0.2474991753
0.6024997364 0.7500250215 0.2474991753
0.6224997364 0.7500250215 0.2474991753
0.6424997364 0.7500250215 0.2474991753
0.6624997364 0.7500250215 0.2474991753
0.6824997364 0.7500250215 0.2474991753
0.7024997364 0.7500250215 0.2474991753
0.7224997364 0.7500250215 0.2474991753
0.7424997364 0.7500250215 0.2474991753
0.7624997364 0.7500250215 0.2474991753
0.7824997364 0.7500250215 0.2474991753
0.8024997364 0.7500250215 0.2474991753
0.8224997364 0.7500250215 0.2474991753
0.8424997364 0.7500250215 0.2474991753
0.8624997364 0.7500250215 0.2474991753
0.8824997364 0.7500250215 0.2474991753
0.9024997364 0.7500250215 0.2474991753
0.9224997364 0.7500250215 0.2474991753
0.9424997364 0.7500250215 0.2474991753
0.9624997364 0.7500250215 0.2474991753
0.9824997364 0.7500250215 0.2474991753
0.5124997364 0.7500250215 0.4974991753
0.5324997364 0.7500250215 0.4974991753
0.5524997364 0.7500250215 0.4974991753
0.5724997364 0.7500250215 0.4974991753
0.5924997364 0.7500250215 0.4974991753
0.6124997364 0.7500250215 0.4974991753
0.6324997364 0.7500250215 0.4974991753
0.6524997364 0.7500250215 0.4974991753
0.6724997364 0.7500250215 0.4974991753
0.6924997364 0.7500250215 0.4974991753
0.7124997364 0.7500250215 0.4974991753
0.7324997364 0.7500250215 0.4974991753
0.7524997364 0.7500250215 0.4974991753
0.7724997364 0.7500250215 0.4974991753
0.7924997364 0.7500250215 0.4974991753
0.8124997364 0.7500250215 0.4974991753
0.8324997364 0.7500250215 0.4974991753
0.8524997364 0.7500250215 0.4974991753
0.8724997364 0.7500250215 0.4974991753
0.8924997364 0.7500250215 0.4974991753
0.9124997364 0.7500250215 0.4974991753
0.9324997364 0.7500250215 0.4974991753
0.9524997364 0.7500250215 0.4974991753
0.9724997364 0.7500250215 0.4974991753
0.9924997364 0.7500250215 0.4974991753
0.5224997364 0.7500250215 0.7474991753
0.5424997364 0.7500250215 0.7474991753
0.5624997364 0.7500250215 0.7474991753
0.5824997364 0.7500250215 0.7474991753
0.6024997364 0.7500250215 0.7474991753
0.6224997364 0.7500250215 0.7474991753
0.6424997364 0.7500250215 0.7474991753
0.6624997364 0.7500250215 0.7474991753
0.6824997364 0.7500250215 0.7474991753
0.7024997364 0.7500250215 0.7474991753
0.7224997364 0.7500250215 0.7474991753
0.7424997364 0.7500250215 0.7474991753
0.7624997364 0.7500250215 0.7474991753
0.7824997364 0.7500250215 0.7474991753
0.8024997364 0.7500250215 0.7474991753
0.8224997364 0.7500250215 0.7474991753
0.8424997364 0.7500250215 0.7474991753
0.8624997364 0.7500250215 0.7474991753
0.8824997364 0.7500250215 0.7474991753
0.9024997364 0.7500250215 0.7474991753
0.9224997364 0.7500250215 0.7474991753
0.9424997364 0.7500250215 0.7474991753
0.9624997364 0.7500250215 0.7474991753
0.9824997364 0.7500250215 0.7474991753
0.5124997364 0.7500250215 0.9974991753
0.5324997364 0.7500250215 0.9974991753
0.5524997364 0.7500250215 0.9974991753
0.5724997364 0.7500250215 0.9974991753
0.5924997364 0.7500250215 0.9974991753
0.6124997364 0.7500250215 0.9974991753
0.6324997364 0.7500250215 0.9974991753
0.6524997364 0.7500250215 0.9974991753
0.6724997364 0.7500250215 0.9974991753
0.6924997364 0.7500250215 0.9974991753
0.7124997364 0.7500250215 0.9974991753
0.7324997364 0.7500250215 0.9974991753
0.7524997364 0.7500250215 0.9974991753
0.7724997364 0.7500250215 0.9974991753
0.7924997364 0.7500250215 0.9974991753
0.8124997364 0.7500250215 0.9974991753
0.8324997364 0.7500250215 0.9974991753
0.8524997364 0.7500250215 0.9974991753
0.8724997364 0.7500250215 0.9974991753
0.8924997364 0.7500250215 0.9974991753
0.9124997364 0.7500250215 0.9974991753
0.9324997364 0.7500250215 0.9974991753
0.9524997364 0.7500250215 0.9974991753
0.9724997364 0.7500250215 0.9974991753
0.9924997364 0.7500250215 0.9974991753
0.4924997364 0.1250250215 0.2474991753
0.4724997364 0.1250250215 0.2474991753
0.4524997364 0.1250250215 0.2474991753
0.4324997364 0.1250250215 0.2474991753
0.4124997364 0.1250250215 0.2474991753
0.3924997364 0.1250250215 0.2474991753
0.3724997364 0.1250250215 0.2474991753
0.3524997364 0.1250250215 0.2474991753
0.3324997364 0.1250250215 0.2474991753
0.3124997364 0.1250250215 0.2474991753
0.2924997364 0.1250250215 0.2474991753
0.2724997364 0.1250250215 0.2474991753
0.2524997364 0.1250250215 0.2474991753
0.2324997364 0.1250250215 0.2474991753
0.2124997364 0.1250250215 0.2474991753
0.1924997364 0.1250250215 0.2474991753
0.1724997364 0.1250250215 0.2474991753
0.1524997364 0.1250250215 0.2474991753
0.1324997364 0.1250250215 0.2474991753
0.1124997364 0.1250250215 0.2474991753
0.0924997364 0.1250250215 0.2474991753
0.0724997364 0.1250250215 0.2474991753
0.0524997364 0.1250250215 0.2474991753
0.0324997364 0.1250250215 0.2474991753
0.0124997364 0.1250250215 0.2474991753
0.5024997364 0.1250250215 0.4974991753
0.4824997364 0.1250250215 0.4974991753
0.4624997364 0.1250250215 0.4974991753
0.4424997364 0.1250250215 0.4974991753
0.4224997364 0.1250250215 0.4974991753
0.4024997364 0.1250250215 0.4974991753
0.3824997364 0.1250250215 0.4974991753
0.3624997364 0.1250250215 0.4974991753
0.3424997364 0.1250250215 0.4974991753
0.3224997364 0.1250250215 0.4974991753
0.3024997364 0.1250250215 0.4974991753
0.2824997364 0.1250250215 0.4974991753
0.2624997364 0.1250250215 0.4974991753
0.2424997364 0.1250250215 0.4974991753
0.2224997364 0.1250250215 0.4974991753
0.2024997364 0.1250250215 0.4974991753
0.1824997364 0.1250250215 0.4974991753
0.1624997364 0.1250250215 0.4974991753
0.1424997364 0.1250250215 0.4974991753
0.1224997364 0.1250250215 0.4974991753
0.1024997364 0.1250250215 0.4974991753
0.0824997364 0.1250250215 0.4974991753
0.0624997364 0.1250250215 0.4974991753
0.0424997364 0.1250250215 0.4974991753
0.0224997364 0.1250250215 0.4974991753
0.0024997364 0.1250250215 0.4974991753
0.4924997364 0.1250250215 0.7474991753
0.4724997364 0.1250250215 0.7474991753
0.4524997364 0.1250250215 0.7474991753
0.4324997364 0.1250250215 0.7474991753
0.4124997364 0.1250250215 0.7474991753
0.3924997364 0.1250250215 0.7474991753
0.3724997364 0.1250250215 0.7474991753
0.3524997364 0.1250250215 0.7474991753
0.3324997364 0.1250250215 0.7474991753
0.3124997364 0.1250250215 0.7474991753
0.2924997364 0.1250250215 0.7474991753
0.2724997364 0.1250250215 0.7474991753
0.2524997364 0.1250250215 0.7474991753
0.2324997364 0.1250250215 0.7474991753
0.2124997364 0.1250250215 0.7474991753
0.1924997364 0.1250250215 0.7474991753
0.1724997364 0.1250250215 0.7474991753
0.1524997364 0.1250250215 0.7474991753
0.1324997364 0.1250250215 0.7474991753
0.1124997364 0.1250250215 0.7474991753
0.0924997364 0.1250250215 0.7474991753
0.0724997364 0.1250250215 0.7474991753
0.0524997364 0.1250250215 0.7474991753
0.0324997364 0.1250250215 0.7474991753
0.0124997364 0.1250250215 0.7474991753
0.5024997364 0.1250250215 0.9974991753
0.4824997364 0.1250250215 0.9974991753
0.4624997364 0.1250250215 0.9974991753
0.4424997364 0.1250250215 0.9974991753
0.4224997364 0.1250250215 0.9974991753
0.4024997364 0.1250250215 0.9974991753
0.3824997364 0.1250250215 0.9974991753
0.3624997364 0.1250250215 0.9974991753
0.3424997364 0.1250250215 0.9974991753
0.3224997364 0.1250250215 0.9974991753
0.3024997364 0.1250250215 0.9974991753
0.2824997364 0.1250250215 0.9974991753
0.2624997364 0.1250250215 0.9974991753
0.2424997364 0.1250250215 0.9974991753
0.2224997364 0.1250250215 0.9974991753
0.2024997364 0.1250250215 0.9974991753
0.1824997364 0.1250250215 0.9974991753
0.1624997364 0.1250250215 0.9974991753
0.1424997364 0.1250250215 0.9974991753
0.1224997364 0.1250250215 0.9974991753
0.1024997364 0.1250250215 0.9974991753
0.0824997364 0.1250250215 0.9974991753
0.0624997364 0.1250250215 0.9974991753
0.0424997364 0.1250250215 0.9974991753
0.0224997364 0.1250250215 0.9974991753
0.0024997364 0.1250250215 0.9974991753
0.4924997364 0.3750250215 0.2474991753
0.4724997364 0.3750250215 0.2474991753
0.4524997364 0.3750250215 0.2474991753
0.4324997364 0.3750250215 0.2474991753
0.4124997364 0.3750250215 0.2474991753
0.3924997364 0.3750250215 0.2474991753
0.3724997364 0.3750250215 0.2474991753
0.3524997364 0.3750250215 0.2474991753
0.3324997364 0.3750250215 0.2474991753
0.3124997364 0.3750250215 0.2474991753
0.2924997364 0.3750250215 0.2474991753
0.2724997364 0.3750250215 0.2474991753
0.2524997364 0.3750250215 0.2474991753
0.2324997364 0.3750250215 0.2474991753
0.2124997364 0.3750250215 0.2474991753
0.1924997364 0.3750250215 0.2474991753
0.1724997364 0.3750250215 0.2474991753
0.1524997364 0.3750250215 0.2474991753
0.1324997364 0.3750250215 0.2474991753
0.1124997364 0.3750250215 0.2474991753
0.0924997364 0.3750250215 0.2474991753
0.0724997364 0.3750250215 0.2474991753
0.0524997364 0.3750250215 0.2474991753
0.0324997364 0.3750250215 0.2474991753
0.0124997364 0.3750250215 0.2474991753
0.5024997364 0.3750250215 0.4974991753
0.4824997364 0.3750250215 0.4974991753
0.4624997364 0.3750250215 0.4974991753
0.4424997364 0.3750250215 0.4974991753
0.4224997364 0.3750250215 0.4974991753
0.4024997364 0.3750250215 0.4974991753
0.3824997364 0.3750250215 0.4974991753
0.3624997364 0.3750250215 0.4974991753
0.3424997364 0.3750250215 0.4974991753
0.3224997364 0.3750250215 0.4974991753
0.3024997364 0.3750250215 0.4974991753
0.2824997364 0.3750250215 0.4974991753
0.2624997364 0.3750250215 0.4974991753
0.2424997364 0.3750250215 0.4974991753
0.2224997364 0.3750250215 0.4974991753
0.2024997364 0.3750250215 0.4974991753
0.1824997364 0.3750250215 0.4974991753
0.1624997364 0.3750250215 0.4974991753
0.1424997364 0.3750250215 0.4974991753
0.1224997364 0.3750250215 0.4974991753
0.1024997364 0.3750250215 0.4974991753
0.0824997364 0.3750250215 0.4974991753
0.0624997364 0.3750250215 0.4974991753
0.0424997364 0.3750250215 0.4974991753
0.0224997364 0.3750250215 0.4974991753
0.0024997364 0.3750250215 0.4974991753
0.4924997364 0.3750250215 0.7474991753
0.4724997364 0.3750250215 0.7474991753
0.4524997364 0.3750250215 0.7474991753
0.4324997364 0.3750250215 0.7474991753
0.4124997364 0.3750250215 0.7474991753
0.3924997364 0.3750250215 0.7474991753
0.3724997364 0.3750250215 0.7474991753
0.3524997364 0.3750250215 0.7474991753
0.3324997364 0.3750250215 0.7474991753
0.3124997364 0.3750250215 0.7474991753
0.2924997364 0.3750250215 0.7474991753
0.2724997364 0.3750250215 0.7474991753
0.2524997364 0.3750250215 0.7474991753
0.2324997364 0.3750250215 0.7474991753
0.2124997364 0.3750250215 0.7474991753
0.1924997364 0.3750250215 0.7474991753
0.1724997364 0.3750250215 0.7474991753
0.1524997364 0.3750250215 0.7474991753
0.1324997364 0.3750250215 0.7474991753
0.1124997364 0.3750250215 0.7474991753
0.0924997364 0.3750250215 0.7474991753
0.0724997364 0.3750250215 0.7474991753
0.0524997364 0.3750250215 0.7474991753
0.0324997364 0.3750250215 0.7474991753
0.0124997364 0.3750250215 0.7474991753
0.5024997364 0.3750250215 0.9974991753
0.4824997364 0.3750250215 0.9974991753
0.4624997364 0.3750250215 0.9974991753
0.4424997364 0.3750250215 0.9974991753
0.4224997364 0.3750250215 0.9974991753
0.4024997364 0.3750250215 0.9974991753
0.3824997364 0.3750250215 0.9974991753
0.3624997364 0.3750250215 0.9974991753
0.3424997364 0.3750250215 0.9974991753
0.3224997364 0.3750250215 0.9974991753
0.3024997364 0.3750250215 0.9974991753
0.2824997364 0.3750250215 0.9974991753
0.2624997364 0.3750250215 0.9974991753
0.2424997364 0.3750250215 0.9974991753
0.2224997364 0.3750250215 0.9974991753
0.2024997364 0.3750250215 0.9974991753
0.1824997364 0.3750250215 0.9974991753
0.1624997364 0.3750250215 0.9974991753
0.1424997364 0.3750250215 0.9974991753
0.1224997364 0.3750250215 0.9974991753
0.1024997364 0.3750250215 0.9974991753
0.0824997364 0.3750250215 0.9974991753
0.0624997364 0.3750250215 0.9974991753
0.0424997364 0.3750250215 0.9974991753
0.0224997364 0.3750250215 0.9974991753
0.0024997364 0.3750250215 0.9974991753
0.4924997364 0.6250250215 0.2474991753
0.4724997364 0.6250250215 0.2474991753
0.4524997364 0.6250250215 0.2474991753
0.4324997364 0.6250250215 0.2474991753
0.4124997364 0.6250250215 0.2474991753
0.3924997364 0.6250250215 0.2474991753
0.3724997364 0.6250250215 0.2474991753
0.3524997364 0.6250250215 0.2474991753
0.3324997364 0.6250250215 0.2474991753
0.3124997364 0.6250250215 0.2474991753
0.2924997364 0.6250250215 0.2474991753
0.2724997364 0.6250250215 0.2474991753
0.2524997364 0.6250250215 0.2474991753
0.2324997364 0.6250250215 0.2474991753
0.2124997364 0.6250250215 0.2474991753
0.1924997364 0.6250250215 0.2474991753
0.1724997364 0.6250250215 0.2474991753
0.1524997364 0.6250250215 0.2474991753
0.1324997364 0.6250250215 0.2474991753
0.1124997364 0.6250250215 0.2474991753
0.0924997364 0.6250250215 0.2474991753
0.0724997364 0.6250250215 0.2474991753
0.0524997364 0.6250250215 0.2474991753
0.0324997364 0.6250250215 0.2474991753
0.0124997364 0.6250250215 0.2474991753
0.5024997364 0.6250250215 0.4974991753
0.4824997364 0.6250250215 0.4974991753
0.4624997364 0.6250250215 0.4974991753
0.4424997364 0.6250250215 0.4974991753
0.4224997364 0.6250250215 0.4974991753
0.4024997364 0.6250250215 0.4974991753
0.3824997364 0.6250250215 0.4974991753
0.3624997364 0.6250250215 0.4974991753
0.3424997364 0.6250250215 0.4974991753
0.3224997364 0.6250250215 0.4974991753
0.3024997364 0.6250250215 0.4974991753
0.2824997364 0.6250250215 0.4974991753
0.2624997364 0.6250250215 0.4974991753
0.2424997364 0.6250250215 0.4974991753
0.2224997364 0.6250250215 0.4974991753
0.2024997364 0.6250250215 0.4974991753
0.1824997364 0.6250250215 0.4974991753
0.1624997364 0.6250250215 0.4974991753
0.1424997364 0.6250250215 0.4974991753
0.1224997364 0.6250250215 0.4974991753
0.1024997364 0.6250250215 0.4974991753
0.0824997364 0.6250250215 0.4974991753
0.0624997364 0.6250250215 0.4974991753
0.0424997364 0.6250250215 0.4974991753
0.0224997364 0.6250250215 0.4974991753
0.0024997364 0.6250250215 0.4974991753
0.4924997364 0.6250250215 0.7474991753
0.4724997364 0.6250250215 0.7474991753
0.4524997364 0.6250250215 0.7474991753
0.4324997364 0.6250250215 0.7474991753
0.4124997364 0.6250250215 0.7474991753
0.3924997364 0.6250250215 0.7474991753
0.3724997364 0.6250250215 0.7474991753
0.3524997364 0.6250250215 0.7474991753
0.3324997364 0.6250250215 0.7474991753
0.3124997364 0.6250250215 0.7474991753
0.2924997364 0.6250250215 0.7474991753
0.2724997364 0.6250250215 0.7474991753
0.2524997364 0.6250250215 0.7474991753
0.2324997364 0.6250250215 0.7474991753
0.2124997364 0.6250250215 0.7474991753
0.1924997364 0.6250250215 0.7474991753
0.1724997364 0.6250250215 0.7474991753
0.1524997364 0.6250250215 0.7474991753
0.1324997364 0.6250250215 0.7474991753
0.1124997364 0.6250250215 0.7474991753
0.0924997364 0.6250250215 0.7474991753
0.0724997364 0.6250250215 0.7474991753
0.0524997364 0.6250250215 0.7474991753
0.0324997364 0.6250250215 0.7474991753
0.0124997364 0.6250250215 0.7474991753
0.5024997364 0.6250250215 0.9974991753
0.4824997364 0.6250250215 0.9974991753
0.4624997364 0.6250250215 0.9974991753
0.4424997364 0.6250250215 0.9974991753
0.4224997364 0.6250250215 0.9974991753
0.4024997364 0.6250250215 0.9974991753
0.3824997364 0.6250250215 0.9974991753
0.3624997364 0.6250250215 0.9974991753
0.3424997364 0.6250250215 0.9974991753
0.3224997364 0.6250250215 0.9974991753
0.3024997364 0.6250250215 0.9974991753
0.2824997364 0.6250250215 0.9974991753
0.2624997364 0.6250250215 0.9974991753
0.2424997364 0.6250250215 0.9974991753
0.2224997364 0.6250250215 0.9974991753
0.2024997364 0.6250250215 0.9974991753
0.1824997364 0.6250250215 0.9974991753
0.1624997364 0.6250250215 0.9974991753
0.1424997364 0.6250250215 0.9974991753
0.1224997364 0.6250250215 0.9974991753
0.1024997364 0.6250250215 0.9974991753
0.0824997364 0.6250250215 0.9974991753
0.0624997364 0.6250250215 0.9974991753
0.0424997364 0.6250250215 0.9974991753
0.0224997364 0.6250250215 0.9974991753
0.0024997364 0.6250250215 0.9974991753
0.4924997364 0.8750250215 0.2474991753
0.4724997364 0.8750250215 0.2474991753
0.4524997364 0.8750250215 0.2474991753
0.4324997364 0.8750250215 0.2474991753
0.4124997364 0.8750250215 0.2474991753
0.3924997364 0.8750250215 0.2474991753
0.3724997364 0.8750250215 0.2474991753
0.3524997364 0.8750250215 0.2474991753
0.3324997364 0.8750250215 0.2474991753
0.3124997364 0.8750250215 0.2474991753
0.2924997364 0.8750250215 0.2474991753
0.2724997364 0.8750250215 0.2474991753
0.2524997364 0.8750250215 0.2474991753
0.2324997364 0.8750250215 0.2474991753
0.2124997364 0.8750250215 0.2474991753
0.1924997364 0.8750250215 0.2474991753
0.1724997364 0.8750250215 0.2474991753
0.1524997364 0.8750250215 0.2474991753
0.1324997364 0.8750250215 0.2474991753
0.1124997364 0.8750250215 0.2474991753
0.0924997364 0.8750250215 0.2474991753
0.0724997364 0.8750250215 0.2474991753
0.0524997364 0.8750250215 0.2474991753
0.0324997364 0.8750250215 0.2474991753
0.0124997364 0.8750250215 0.2474991753
0.5024997364 0.8750250215 0.4974991753
0.4824997364 0.8750250215 0.4974991753
0.4624997364 0.8750250215 0.4974991753
0.4424997364 0.8750250215 0.4974991753
0.4224997364 0.8750250215 0.4974991753
0.4024997364 0.8750250215 0.4974991753
0.3824997364 0.8750250215 0.4974991753
0.3624997364 0.8750250215 0.4974991753
0.3424997364 0.8750250215 0.4974991753
0.3224997364 0.8750250215 0.4974991753
0.3024997364 0.8750250215 0.4974991753
0.2824997364 0.8750250215 0.4974991753
0.2624997364 0.8750250215 0.4974991753
0.2424997364 0.8750250215 0.4974991753
0.2224997364 0.8750250215 0.4974991753
0.2024997364 0.8750250215 0.4974991753
0.1824997364 0.8750250215 0.4974991753
0.1624997364 0.8750250215 0.4974991753
0.1424997364 0.8750250215 0.4974991753
0.1224997364 0.8750250215 0.4974991753
0.1024997364 0.8750250215 0.4974991753
0.0824997364 0.8750250215 0.4974991753
0.0624997364 0.8750250215 0.4974991753
0.0424997364 0.8750250215 0.4974991753
0.0224997364 0.8750250215 0.4974991753
0.0024997364 0.8750250215 0.4974991753
0.4924997364 0.8750250215 0.7474991753
0.4724997364 0.8750250215 0.7474991753
0.4524997364 0.8750250215 0.7474991753
0.4324997364 0.8750250215 0.7474991753
0.4124997364 0.8750250215 0.7474991753
0.3924997364 0.8750250215 0.7474991753
0.3724997364 0.8750250215 0.7474991753
0.3524997364 0.8750250215 0.7474991753
0.3324997364 0.8750250215 0.7474991753
0.3124997364 0.8750250215 0.7474991753
0.2924997364 0.8750250215 0.7474991753
0.2724997364 0.8750250215 0.7474991753
0.2524997364 0.8750250215 0.7474991753
0.2324997364 0.8750250215 0.7474991753
0.2124997364 0.8750250215 0.7474991753
0.1924997364 0.8750250215 0.7474991753
0.1724997364 0.8750250215 0.7474991753
0.1524997364 0.8750250215 0.7474991753
0.1324997364 0.8750250215 0.7474991753
0.1124997364 0.8750250215 0.7474991753
0.0924997364 0.8750250215 0.7474991753
0.0724997364 0.8750250215 0.7474991753
0.0524997364 0.8750250215 0.7474991753
0.0324997364 0.8750250215 0.7474991753
0.0124997364 0.8750250215 0.7474991753
0.5024997364 0.8750250215 0.9974991753
0.4824997364 0.8750250215 0.9974991753
0.4624997364 0.8750250215 0.9974991753
0.4424997364 0.8750250215 0.9974991753
0.4224997364 0.8750250215 0.9974991753
0.4024997364 0.8750250215 0.9974991753
0.3824997364 0.8750250215 0.9974991753
0.3624997364 0.8750250215 0.9974991753
0.3424997364 0.8750250215 0.9974991753
0.3224997364 0.8750250215 0.9974991753
0.3024997364 0.8750250215 0.9974991753
0.2824997364 0.8750250215 0.9974991753
0.2624997364 0.8750250215 0.9974991753
0.2424997364 0.8750250215 0.9974991753
0.2224997364 0.8750250215 0.9974991753
0.2024997364 0.8750250215 0.9974991753
0.1824997364 0.8750250215 0.9974991753
0.1624997364 0.8750250215 0.9974991753
0.1424997364 0.8750250215 0.9974991753
0.1224997364 0.8750250215 0.9974991753
0.1024997364 0.8750250215 0.9974991753
0.0824997364 0.8750250215 0.9974991753
0.0624997364 0.8750250215 0.9974991753
0.0424997364 0.8750250215 0.9974991753
0.0224997364 0.8750250215 0.9974991753
0.0024997364 0.8750250215 0.9974991753
0.5124997364 0.1250250215 0.2474991753
0.5324997364 0.1250250215 0.2474991753
0.5524997364 0.1250250215 0.2474991753
0.5724997364 0.1250250215 0.2474991753
0.5924997364 0.1250250215 0.2474991753
0.6124997364 0.1250250215 0.2474991753
0.6324997364 0.1250250215 0.2474991753
0.6524997364 0.1250250215 0.2474991753
0.6724997364 0.1250250215 0.2474991753
0.6924997364 0.1250250215 0.2474991753
0.7124997364 0.1250250215 0.2474991753
0.7324997364 0.1250250215 0.2474991753
0.7524997364 0.1250250215 0.2474991753
0.7724997364 0.1250250215 0.2474991753
0.7924997364 0.1250250215 0.2474991753
0.8124997364 0.1250250215 0.2474991753
0.8324997364 0.1250250215 0.2474991753
0.8524997364 0.1250250215 0.2474991753
0.8724997364 0.1250250215 0.2474991753
0.8924997364 0.1250250215 0.2474991753
0.9124997364 0.1250250215 0.2474991753
0.9324997364 0.1250250215 0.2474991753
0.9524997364 0.1250250215 0.2474991753
0.9724997364 0.1250250215 0.2474991753
0.9924997364 0.1250250215 0.2474991753
0.5224997364 0.1250250215 0.4974991753
0.5424997364 0.1250250215 0.4974991753
0.5624997364 0.1250250215 0.4974991753
0.5824997364 0.1250250215 0.4974991753
0.6024997364 0.1250250215 0.4974991753
0.6224997364 0.1250250215 0.4974991753
0.6424997364 0.1250250215 0.4974991753
0.6624997364 0.1250250215 0.4974991753
0.6824997364 0.1250250215 0.4974991753
0.7024997364 0.1250250215 0.4974991753
0.7224997364 0.1250250215 0.4974991753
0.7424997364 0.1250250215 0.4974991753
0.7624997364 0.1250250215 0.4974991753
0.7824997364 0.1250250215 0.4974991753
0.8024997364 0.1250250215 0.4974991753
0.8224997364 0.1250250215 0.4974991753
0.8424997364 0.1250250215 0.4974991753
0.8624997364 0.1250250215 0.4974991753
0.8824997364 0.1250250215 0.4974991753
0.9024997364 0.1250250215 0.4974991753
0.9224997364 0.1250250215 0.4974991753
0.9424997364 0.1250250215 0.4974991753
0.9624997364 0.1250250215 0.4974991753
0.9824997364 0.1250250215 0.4974991753
0.5124997364 0.1250250215 0.7474991753
0.5324997364 0.1250250215 0.7474991753
0.5524997364 0.1250250215 0.7474991753
0.5724997364 0.1250250215 0.7474991753
0.5924997364 0.1250250215 0.7474991753
0.6124997364 0.1250250215 0.7474991753
0.6324997364 0.1250250215 0.7474991753
0.6524997364 0.1250250215 0.7474991753
0.6724997364 0.1250250215 0.7474991753
0.6924997364 0.1250250215 0.7474991753
0.7124997364 0.1250250215 0.7474991753
0.7324997364 0.1250250215 0.7474991753
0.7524997364 0.1250250215 0.7474991753
0.7724997364 0.1250250215 0.7474991753
0.7924997364 0.1250250215 0.7474991753
0.8124997364 0.1250250215 0.7474991753
0.8324997364 0.1250250215 0.7474991753
0.8524997364 0.1250250215 0.7474991753
0.8724997364 0.1250250215 0.7474991753
0.8924997364 0.1250250215 0.7474991753
0.9124997364 0.1250250215 0.7474991753
0.9324997364 0.1250250215 0.7474991753
0.9524997364 0.1250250215 0.7474991753
0.9724997364 0.1250250215 0.7474991753
0.9924997364 0.1250250215 0.7474991753
0.5224997364 0.1250250215 0.9974991753
0.5424997364 0.1250250215 0.9974991753
0.5624997364 0.1250250215 0.9974991753
0.5824997364 0.1250250215 0.9974991753
0.6024997364 0.1250250215 0.9974991753
0.6224997364 0.1250250215 0.9974991753
0.6424997364 0.1250250215 0.9974991753
0.6624997364 0.1250250215 0.9974991753
0.6824997364 0.1250250215 0.9974991753
0.7024997364 0.1250250215 0.9974991753
0.7224997364 0.1250250215 0.9974991753
0.7424997364 0.1250250215 0.9974991753
0.7624997364 0.1250250215 0.9974991753
0.7824997364 0.1250250215 0.9974991753
0.8024997364 0.1250250215 0.9974991753
0.8224997364 0.1250250215 0.9974991753
0.8424997364 0.1250250215 0.9974991753
0.8624997364 0.1250250215 0.9974991753
0.8824997364 0.1250250215 0.9974991753
0.9024997364 0.1250250215 0.9974991753
0.9224997364 0.1250250215 0.9974991753
0.9424997364 0.1250250215 0.9974991753
0.9624997364 0.1250250215 0.9974991753
0.9824997364 0.1250250215 0.9974991753
0.5124997364 0.3750250215 0.2474991753
0.5324997364 0.3750250215 0.2474991753
0.5524997364 0.3750250215 0.2474991753
0.5724997364 0.3750250215 0.2474991753
0.5924997364 0.3750250215 0.2474991753
0.6124997364 0.3750250215 0.2474991753
0.6324997364 0.3750250215 0.2474991753
0.6524997364 0.3750250215 0.2474991753
0.6724997364 0.3750250215 0.2474991753
0.6924997364 0.3750250215 0.2474991753
0.7124997364 0.3750250215 0.2474991753
0.7324997364 0.3750250215 0.2474991753
0.7524997364 0.3750250215 0.2474991753
0.7724997364 0.3750250215 0.2474991753
0.7924997364 0.3750250215 0.2474991753
0.8124997364 0.3750250215 0.2474991753
0.8324997364 0.3750250215 0.2474991753
0.8524997364 0.3750250215 0.2474991753
0.8724997364 0.3750250215 0.2474991753
0.8924997364 0.3750250215 0.2474991753
0.9124997364 0.3750250215 0.2474991753
0.9324997364 0.3750250215 0.2474991753
0.9524997364 0.3750250215 0.2474991753
0.9724997364 0.3750250215 0.2474991753
0.9924997364 0.3750250215 0.2474991753
0.5224997364 0.3750250215 0.4974991753
0.5424997364 0.3750250215 0.4974991753
0.5624997364 0.3750250215 0.4974991753
0.5824997364 0.3750250215 0.4974991753
0.6024997364 0.3750250215 0.4974991753
0.6224997364 0.3750250215 0.4974991753
0.6424997364 0.3750250215 0.4974991753
0.6624997364 0.3750250215 0.4974991753
0.6824997364 0.3750250215 0.4974991753
0.7024997364 0.3750250215 0.4974991753
0.7224997364 0.3750250215 0.4974991753
0.7424997364 0.3750250215 0.4974991753
0.7624997364 0.3750250215 0.4974991753
0.7824997364 0.3750250215 0.4974991753
0.8024997364 0.3750250215 0.4974991753
0.8224997364 0.3750250215 0.4974991753
0.8424997364 0.3750250215 0.4974991753
0.8624997364 0.3750250215 0.4974991753
0.8824997364 0.3750250215 0.4974991753
0.9024997364 0.3750250215 0.4974991753
0.9224997364 0.3750250215 0.4974991753
0.9424997364 0.3750250215 0.4974991753
0.9624997364 0.3750250215 0.4974991753
0.9824997364 0.3750250215 0.4974991753
0.5124997364 0.3750250215 0.7474991753
0.5324997364 0.3750250215 0.7474991753
0.5524997364 0.3750250215 0.7474991753
0.5724997364 0.3750250215 0.7474991753
0.5924997364 0.3750250215 0.7474991753
0.6124997364 0.3750250215 0.7474991753
0.6324997364 0.3750250215 0.7474991753
0.6524997364 0.3750250215 0.7474991753
0.6724997364 0.3750250215 0.7474991753
0.6924997364 0.3750250215 0.7474991753
0.7124997364 0.3750250215 0.7474991753
0.7324997364 0.3750250215 0.7474991753
0.7524997364 0.3750250215 0.7474991753
0.7724997364 0.3750250215 0.7474991753
0.7924997364 0.3750250215 0.7474991753
0.8124997364 0.3750250215 0.7474991753
0.8324997364 0.3750250215 0.7474991753
0.8524997364 0.3750250215 0.7474991753
0.8724997364 0.3750250215 0.7474991753
0.8924997364 0.3750250215 0.7474991753
0.9124997364 0.3750250215 0.7474991753
0.9324997364 0.3750250215 0.7474991753
0.9524997364 0.3750250215 0.7474991753
0.9724997364 0.3750250215 0.7474991753
0.9924997364 0.3750250215 0.7474991753
0.5224997364 0.3750250215 0.9974991753
0.5424997364 0.3750250215 0.9974991753
0.5624997364 0.3750250215 0.9974991753
0.5824997364 0.3750250215 0.9974991753
0.6024997364 0.3750250215 0.9974991753
0.6224997364 0.3750250215 0.9974991753
0.6424997364 0.3750250215 0.9974991753
0.6624997364 0.3750250215 0.9974991753
0.6824997364 0.3750250215 0.9974991753
0.7024997364 0.3750250215 0.9974991753
0.7224997364 0.3750250215 0.9974991753
0.7424997364 0.3750250215 0.9974991753
0.7624997364 0.3750250215 0.9974991753
0.7824997364 0.3750250215 0.9974991753
0.8024997364 0.3750250215 0.9974991753
0.8224997364 0.3750250215 0.9974991753
0.8424997364 0.3750250215 0.9974991753
0.8624997364 0.3750250215 0.9974991753
0.8824997364 0.3750250215 0.9974991753
0.9024997364 0.3750250215 0.9974991753
0.9224997364 0.3750250215 0.9974991753
0.9424997364 0.3750250215 0.9974991753
0.9624997364 0.3750250215 0.9974991753
0.9824997364 0.3750250215 0.9974991753
0.5124997364 0.6250250215 0.2474991753
0.5324997364 0.6250250215 0.2474991753
0.5524997364 0.6250250215 0.2474991753
0.5724997364 0.6250250215 0.2474991753
0.5924997364 0.6250250215 0.2474991753
0.6124997364 0.6250250215 0.2474991753
0.6324997364 0.6250250215 0.2474991753
0.6524997364 0.6250250215 0.2474991753
0.6724997364 0.6250250215 0.2474991753
0.6924997364 0.6250250215 0.2474991753
0.7124997364 0.6250250215 0.2474991753
0.7324997364 0.6250250215 0.2474991753
0.7524997364 0.6250250215 0.2474991753
0.7724997364 0.6250250215 0.2474991753
0.7924997364 0.6250250215 0.2474991753
0.8124997364 0.6250250215 0.2474991753
0.8324997364 0.6250250215 0.2474991753
0.8524997364 0.6250250215 0.2474991753
0.8724997364 0.6250250215 0.2474991753
0.8924997364 0.6250250215 0.2474991753
0.9124997364 0.6250250215 0.2474991753
0.9324997364 0.6250250215 0.2474991753
0.9524997364 0.6250250215 0.2474991753
0.9724997364 0.6250250215 0.2474991753
0.9924997364 0.6250250215 0.2474991753
0.5224997364 0.6250250215 0.4974991753
0.5424997364 0.6250250215 0.4974991753
0.5624997364 0.6250250215 0.4974991753
0.5824997364 0.6250250215 0.4974991753
0.6024997364 0.6250250215 0.4974991753
0.6224997364 0.6250250215 0.4974991753
0.6424997364 0.6250250215 0.4974991753
0.6624997364 0.6250250215 0.4974991753
0.6824997364 0.6250250215 0.4974991753
0.7024997364 0.6250250215 0.4974991753
0.7224997364 0.6250250215 0.4974991753
0.7424997364 0.6250250215 0.4974991753
0.7624997364 0.6250250215 0.4974991753
0.7824997364 0.6250250215 0.4974991753
0.8024997364 0.6250250215 0.4974991753
0.8224997364 0.6250250215 0.4974991753
0.8424997364 0.6250250215 0.4974991753
0.8624997364 0.6250250215 0.4974991753
0.8824997364 0.6250250215 0.4974991753
0.9024997364 0.6250250215 0.4974991753
0.9224997364 0.6250250215 0.4974991753
0.9424997364 0.6250250215 0.4974991753
0.9624997364 0.6250250215 0.4974991753
0.9824997364 0.6250250215 0.4974991753
0.5124997364 0.6250250215 0.7474991753
0.5324997364 0.6250250215 0.7474991753
0.5524997364 0.6250250215 0.7474991753
0.5724997364 0.6250250215 0.7474991753
0.5924997364 0.6250250215 0.7474991753
0.6124997364 0.6250250215 0.7474991753
0.6324997364 0.6250250215 0.7474991753
0.6524997364 0.6250250215 0.7474991753
0.6724997364 0.6250250215 0.7474991753
0.6924997364 0.6250250215 0.7474991753
0.7124997364 0.6250250215 0.7474991753
0.7324997364 0.6250250215 0.7474991753
0.7524997364 0.6250250215 0.7474991753
0.7724997364 0.6250250215 0.7474991753
0.7924997364 0.6250250215 0.7474991753
0.8124997364 0.6250250215 0.7474991753
0.8324997364 0.6250250215 0.7474991753
0.8524997364 0.6250250215 0.7474991753
0.8724997364 0.6250250215 0.7474991753
0.8924997364 0.6250250215 0.7474991753
0.9124997364 0.6250250215 0.7474991753
0.9324997364 0.6250250215 0.7474991753
0.9524997364 0.6250250215 0.7474991753
0.9724997364 0.6250250215 0.7474991753
0.9924997364 0.6250250215 0.7474991753
0.5224997364 0.6250250215 0.9974991753
0.5424997364 0.6250250215 0.9974991753
0.5624997364 0.6250250215 0.9974991753
0.5824997364 0.6250250215 0.9974991753
0.6024997364 0.6250250215 0.9974991753
0.6224997364 0.6250250215 0.9974991753
0.6424997364 0.6250250215 0.9974991753
0.6624997364 0.6250250215 0.9974991753
0.6824997364 0.6250250215 0.9974991753
0.7024997364 0.6250250215 0.9974991753
0.7224997364 0.6250250215 0.9974991753
0.7424997364 0.6250250215 0.9974991753
0.7624997364 0.6250250215 0.9974991753
0.7824997364 0.6250250215 0.9974991753
0.8024997364 0.6250250215 0.9974991753
0.8224997364 0.6250250215 0.9974991753
0.8424997364 0.6250250215 0.9974991753
0.8624997364 0.6250250215 0.9974991753
0.8824997364 0.6250250215 0.9974991753
0.9024997364 0.6250250215 0.9974991753
0.9224997364 0.6250250215 0.9974991753
0.9424997364 0.6250250215 0.9974991753
0.9624997364 0.6250250215 0.9974991753
0.9824997364 0.6250250215 0.9974991753
0.5124997364 0.8750250215 0.2474991753
0.5324997364 0.8750250215 0.2474991753
0.5524997364 0.8750250215 0.2474991753
0.5724997364 0.8750250215 0.2474991753
0.5924997364 0.8750250215 0.2474991753
0.6124997364 0.8750250215 0.2474991753
0.6324997364 0.8750250215 0.2474991753
0.6524997364 0.8750250215 0.2474991753
0.6724997364 0.8750250215 0.2474991753
0.6924997364 0.8750250215 0.2474991753
0.7124997364 0.8750250215 0.2474991753
0.7324997364 0.8750250215 0.2474991753
0.7524997364 0.8750250215 0.2474991753
0.7724997364 0.8750250215 0.2474991753
0.7924997364 0.8750250215 0.2474991753
0.8124997364 0.8750250215 0.2474991753
0.8324997364 0.8750250215 0.2474991753
0.8524997364 0.8750250215 0.2474991753
0.8724997364 0.8750250215 0.2474991753
0.8924997364 0.8750250215 0.2474991753
0.9124997364 0.8750250215 0.2474991753
0.9324997364 0.8750250215 0.2474991753
0.9524997364 0.8750250215 0.2474991753
0.9724997364 0.8750250215 0.2474991753
0.9924997364 0.8750250215 0.2474991753
0.5224997364 0.8750250215 0.4974991753
0.5424997364 0.8750250215 0.4974991753
0.5624997364 0.8750250215 0.4974991753
0.5824997364 0.8750250215 0.4974991753
0.6024997364 0.8750250215 0.4974991753
0.6224997364 0.8750250215 0.4974991753
0.6424997364 0.8750250215 0.4974991753
0.6624997364 0.8750250215 0.4974991753
0.6824997364 0.8750250215 0.4974991753
0.7024997364 0.8750250215 0.4974991753
0.7224997364 0.8750250215 0.4974991753
0.7424997364 0.8750250215 0.4974991753
0.7624997364 0.8750250215 0.4974991753
0.7824997364 0.8750250215 0.4974991753
0.8024997364 0.8750250215 0.4974991753
0.8224997364 0.8750250215 0.4974991753
0.8424997364 0.8750250215 0.4974991753
0.8624997364 0.8750250215 0.4974991753
0.8824997364 0.8750250215 0.4974991753
0.9024997364 0.8750250215 0.4974991753
0.9224997364 0.8750250215 0.4974991753
0.9424997364 0.8750250215 0.4974991753
0.9624997364 0.8750250215 0.4974991753
0.9824997364 0.8750250215 0.4974991753
0.5124997364 0.8750250215 0.7474991753
0.5324997364 0.8750250215 0.7474991753
0.5524997364 0.8750250215 0.7474991753
0.5724997364 0.8750250215 0.7474991753
0.5924997364 0.8750250215 0.7474991753
0.6124997364 0.8750250215 0.7474991753
0.6324997364 0.8750250215 0.7474991753
0.6524997364 0.8750250215 0.7474991753
0.6724997364 0.8750250215 0.7474991753
0.6924997364 0.8750250215 0.7474991753
0.7124997364 0.8750250215 0.7474991753
0.7324997364 0.8750250215 0.7474991753
0.7524997364 0.8750250215 0.7474991753
0.7724997364 0.8750250215 0.7474991753
0.7924997364 0.8750250215 0.7474991753
0.8124997364 0.8750250215 0.7474991753
0.8324997364 0.8750250215 0.7474991753
0.8524997364 0.8750250215 0.7474991753
0.8724997364 0.8750250215 0.7474991753
0.8924997364 0.8750250215 0.7474991753
0.9124997364 0.8750250215 0.7474991753
0.9324997364 0.8750250215 0.7474991753
0.9524997364 0.8750250215 0.7474991753
0.9724997364 0.8750250215 0.7474991753
0.9924997364 0.8750250215 0.7474991753
0.5224997364 0.8750250215 0.9974991753
0.5424997364 0.8750250215 0.9974991753
0.5624997364 0.8750250215 0.9974991753
0.5824997364 0.8750250215 0.9974991753
0.6024997364 0.8750250215 0.9974991753
0.6224997364 0.8750250215 0.9974991753
0.6424997364 0.8750250215 0.9974991753
0.6624997364 0.8750250215 0.9974991753
0.6824997364 0.8750250215 0.9974991753
0.7024997364 0.8750250215 0.9974991753
0.7224997364 0.8750250215 0.9974991753
0.7424997364 0.8750250215 0.9974991753
0.7624997364 0.8750250215 0.9974991753
0.7824997364 0.8750250215 0.9974991753
0.8024997364 0.8750250215 0.9974991753
0.8224997364 0.8750250215 0.9974991753
0.8424997364 0.8750250215 0.9974991753
0.8624997364 0.8750250215 0.9974991753
0.8824997364 0.8750250215 0.9974991753
0.9024997364 0.8750250215 0.9974991753
0.9224997364 0.8750250215 0.9974991753
0.9424997364 0.8750250215 0.9974991753
0.9624997364 0.8750250215 0.9974991753
0.9824997364 0.8750250215 0.9974991753
0.4974985844 0.1224675091 0.1224180023
0.5024997364 0.2498942241 0.0055840065
0.4774996148 0.1249054058 0.1224959624
0.4827485307 0.249854216 0.0043298243
0.4574997357 0.125023224 0.1224990989
0.4627610548 0.2498539212 0.0040422651
0.4374997375 0.1250249799 0.1224991448
0.4427613779 0.2498537579 0.0040404232
0.4174997375 0.1250250205 0.1224991459
0.4227613861 0.2498537526 0.0040404226
0.3974997375 0.1250250215 0.1224991459
0.4027613863 0.2498537525 0.0040404226
0.3774997375 0.1250250215 0.1224991459
0.3827613863 0.2498537525 0.0040404226
0.3574997375 0.1250250215 0.1224991459
0.3627613863 0.2498537525 0.0040404226
0.3374997375 0.1250250215 0.1224991459
0.3427613863 0.2498537525 0.0040404226
0.3174997375 0.1250250215 0.1224991459
0.3227613863 0.2498537525 0.0040404226
0.2974997375 0.1250250215 0.1224991459
0.3027613863 0.2498537525 0.0040404226
0.2774997375 0.1250250215 0.1224991459
0.2827613863 0.2498537525 0.0040404226
0.2574997375 0.1250250215 0.1224991459
0.2627613863 0.2498537525 0.0040404226
0.2374997375 0.1250250215 0.1224991459
0.2427613863 0.2498537525 0.0040404226
0.2174997375 0.1250250215 0.1224991459
0.2227613863 0.2498537525 0.0040404226
0.1974997375 0.1250250215 0.1224991459
0.2027613863 0.2498537525 0.0040404226
0.1774997375 0.1250250215 0.1224991459
0.1827613863 0.2498537525 0.0040404226
0.1574997375 0.1250250215 0.1224991459
0.1627613863 0.2498537525 0.0040404226
0.1374997375 0.1250250215 0.1224991459
0.1427613863 0.2498537525 0.0040404226
0.1174997375 0.1250250215 0.1224991459
0.1227613863 0.2498537525 0.0040404226
0.0974997375 0.1250250213 0.1224991459
0.1027613863 0.2498537525 0.0040404226
0.0774997375 0.1250250149 0.1224991458
0.0827613861 0.2498537526 0.0040404226
0.0574997373 0.1250247614 0.1224991391
0.0627613779 0.249853758 0.0040404224
0.0374997312 0.1250189226 0.1224989868
0.0427610549 0.2498540133 0.0040387472
0.0174996525 0.1249332626 0.1224969734
0.0227485454 0.2498690615 0.0037633704
0.0024997364 0.2499749785 0.0025008247
0.4875056889 0.1185753272 0.1226834286
0.4874991042 0.1257113602 0.3724795452
0.4923097549 0.2498660052 0.239956008
0.4675065602 0.1184898604 0.1226705394
0.4674997222 0.1250397227 0.3724987607
0.4722401692 0.2498542445 0.2409249287
0.4475065875 0.1184840339 0.122670467
0.4474997373 0.1250252858 0.372499139
0.4522381391 0.249853786 0.2409578903
0.4275065883 0.1184837808 0.1226704735
0.4274997375 0.1250250281 0.3724991458
0.4322380878 0.2498537534 0.2409579279
0.4075065883 0.1184837743 0.1226704737
0.4074997375 0.1250250217 0.3724991459
0.4122380865 0.2498537525 0.2409579279
0.3875065883 0.1184837742 0.1226704737
0.3874997375 0.1250250215 0.3724991459
0.3922380865 0.2498537525 0.2409579279
0.3675065883 0.1184837742 0.1226704737
0.3674997375 0.1250250215 0.3724991459
0.3722380865 0.2498537525 0.2409579279
0.3475065883 0.1184837742 0.1226704737
0.3474997375 0.1250250215 0.3724991459
0.3522380865 0.2498537525 0.2409579279
0.3275065883 0.1184837742 0.1226704737
0.3274997375 0.1250250215 0.3724991459
0.3322380865 0.2498537525 0.2409579279
0.3075065883 0.1184837742 0.1226704737
0.3074997375 0.1250250215 0.3724991459
0.3122380865 0.2498537525 0.2409579279
0.2875065883 0.1184837742 0.1226704737
0.2874997375 0.1250250215 0.3724991459
0.2922380865 0.2498537525 0.2409579279
0.2675065883 0.1184837742 0.1226704737
0.2674997375 0.1250250215 0.3724991459
0.2722380865 0.2498537525 0.2409579279
0.2475065883 0.1184837742 0.1226704737
0.2474997375 0.1250250215 0.3724991459
0.2522380865 0.2498537525 0.2409579279
0.2275065883 0.1184837742 0.1226704737
0.2274997375 0.1250250215 0.3724991459
0.2322380865 0.2498537525 0.2409579279
0.2075065883 0.1184837742 0.1226704737
0.2074997375 0.1250250215 0.3724991459
0.2122380865 0.2498537525 0.2409579279
0.1875065883 0.1184837742 0.1226704737
0.1874997375 0.1250250215 0.3724991459
0.1922380865 0.2498537525 0.2409579279
0.1675065883 0.1184837742 0.1226704737
0.1674997375 0.1250250215 0.3724991459
0.1722380865 0.2498537525 0.2409579279
0.1475065883 0.1184837742 0.1226704737
0.1474997375 0.1250250215 0.3724991459
0.1522380865 0.2498537525 0.2409579279
0.1275065883 0.1184837742 0.1226704737
0.1274997375 0.1250250215 0.3724991459
0.1322380865 0.2498537525 0.2409579279
0.1075065883 0.1184837742 0.1226704737
0.1074997375 0.1250250215 0.3724991459
0.1122380865 0.2498537525 0.2409579279
0.0875065883 0.1184837752 0.1226704736
0.0874997375 0.1250250226 0.3724991459
0.0922380865 0.2498537525 0.2409579279
0.0675065882 0.1184838157 0.1226704726
0.0674997375 0.1250250631 0.3724991448
0.0722380878 0.2498537534 0.2409579279
0.047506583 0.118485569 0.122670419
0.047499736 0.1250265286 0.3724991065
0.0522381391 0.249853788 0.2409579681
0.0275063295 0.1186031915 0.1226645384
0.0274997268 0.1250353996 0.3724988813
0.0322401673 0.2498560292 0.240993104
0.0075015324 0.1210392333 0.1225814089
0.0074992091 0.1261955203 0.3724750236
0.0123097147 0.2499187899 0.2419741851
0.4975021571 0.130397005 0.3726696685
0.4974985844 0.1224675091 0.6224180023
0.5024997364 0.2498942241 0.5055840065
0.4775064416 0.1315559424 0.3726730602
0.4774996148 0.1249054058 0.6224959624
0.4827485307 0.249854216 0.5043298243
0.4575065833 0.131564764 0.3726704418
0.4574997357 0.125023224 0.6224990989
0.4627610548 0.2498539212 0.5040422651
0.4375065882 0.1315662273 0.3726704726
0.4374997375 0.1250249799 0.6224991448
0.4427613779 0.2498537579 0.5040404232
0.4175065883 0.1315662678 0.3726704736
0.4174997375 0.1250250205 0.6224991459
0.4227613861 0.2498537526 0.5040404226
0.3975065883 0.1315662688 0.3726704737
0.3974997375 0.1250250215 0.6224991459
0.4027613863 0.2498537525 0.5040404226
0.3775065883 0.1315662689 0.3726704737
0.3774997375 0.1250250215 0.6224991459
0.3827613863 0.2498537525 0.5040404226
0.3575065883 0.1315662689 0.3726704737
0.3574997375 0.1250250215 0.6224991459
0.3627613863 0.2498537525 0.5040404226
0.3375065883 0.1315662689 0.3726704737
0.3374997375 0.1250250215 0.6224991459
0.3427613863 0.2498537525 0.5040404226
0.3175065883 0.1315662689 0.3726704737
0.3174997375 0.1250250215 0.6224991459
0.3227613863 0.2498537525 0.5040404226
0.2975065883 0.1315662689 0.3726704737
0.2974997375 0.1250250215 0.6224991459
0.3027613863 0.2498537525 0.5040404226
0.2775065883 0.1315662689 0.3726704737
0.2774997375 0.1250250215 0.6224991459
0.2827613863 0.2498537525 0.5040404226
0.2575065883 0.1315662689 0.3726704737
0.2574997375 0.1250250215 0.6224991459
0.2627613863 0.2498537525 0.5040404226
0.2375065883 0.1315662689 0.3726704737
0.2374997375 0.1250250215 0.6224991459
0.2427613863 0.2498537525 0.5040404226
0.2175065883 0.1315662689 0.3726704737
0.2174997375 0.1250250215 0.6224991459
0.2227613863 0.2498537525 0.5040404226
0.1975065883 0.1315662689 0.3726704737
0.1974997375 0.1250250215 0.6224991459
0.2027613863 0.2498537525 0.5040404226
0.1775065883 0.1315662689 0.3726704737
0.1774997375 0.1250250215 0.6224991459
0.1827613863 0.2498537525 0.5040404226
0.1575065883 0.1315662689 0.3726704737
0.1574997375 0.1250250215 0.6224991459
0.1627613863 0.2498537525 0.5040404226
0.1375065883 0.1315662689 0.3726704737
0.1374997375 0.1250250215 0.6224991459
0.1427613863 0.2498537525 0.5040404226
0.1175065883 0.1315662688 0.3726704737
0.1174997375 0.1250250215 0.6224991459
0.1227613863 0.2498537525 0.5040404226
0.0975065883 0.1315662687 0.3726704737
0.0974997375 0.1250250213 0.6224991459
0.1027613863 0.2498537525 0.5040404226
0.0775065883 0.1315662623 0.3726704735
0.0774997375 0.1250250149 0.6224991458
0.0827613861 0.2498537526 0.5040404226
0.0575065875 0.1315660049 0.3726704666
0.0574997373 0.1250247614 0.6224991391
0.0627613779 0.249853758 0.5040404224
0.0375065512 0.1315515921 0.3726698646
0.0374997312 0.1250189226 0.6224989868
0.0427610549 0.2498540133 0.5040387472
0.0175051406 0.1308808541 0.3726385842
0.0174996525 0.1249332626 0.6224969734
0.0227485454 0.2498690615 0.5037633704
0.0024997364 0.2499749785 0.5025008247
0.4875056889 0.1185753272 0.6226834286
0.4874991042 0.1257113602 0.8724795452
0.4923097549 0.2498660052 0.739956008
0.4675065602 0.1184898604 0.6226705394
0.4674997222 0.1250397227 0.8724987607
0.4722401692 0.2498542445 0.7409249287
0.4475065875 0.1184840339 0.622670467
0.4474997373 0.1250252858 0.872499139
0.4522381391 0.249853786 0.7409578903
0.4275065883 0.1184837808 0.6226704735
0.4274997375 0.1250250281 0.8724991458
0.4322380878 0.2498537534 0.7409579279
0.4075065883 0.1184837743 0.6226704736
0.4074997375 0.1250250217 0.8724991459
0.4122380865 0.2498537525 0.7409579279
0.3875065883 0.1184837742 0.6226704737
0.3874997375 0.1250250215 0.8724991459
0.3922380865 0.2498537525 0.7409579279
0.3675065883 0.1184837742 0.6226704737
0.3674997375 0.1250250215 0.8724991459
0.3722380865 0.2498537525 0.7409579279
0.3475065883 0.1184837742 0.6226704737
0.3474997375 0.1250250215 0.8724991459
0.3522380865 0.2498537525 0.7409579279
0.3275065883 0.1184837742 0.6226704737
0.3274997375 0.1250250215 0.8724991459
0.3322380865 0.2498537525 0.7409579279
0.3075065883 0.1184837742 0.6226704737
0.3074997375 0.1250250215 0.8724991459
0.3122380865 0.2498537525 0.7409579279
0.2875065883 0.1184837742 0.6226704737
0.2874997375 0.1250250215 0.8724991459
0.2922380865 0.2498537525 0.7409579279
0.2675065883 0.1184837742 0.6226704737
0.2674997375 0.1250250215 0.8724991459
0.2722380865 0.2498537525 0.7409579279
0.2475065883 0.1184837742 0.6226704737
0.2474997375 0.1250250215 0.8724991459
0.2522380865 0.2498537525 0.7409579279
0.2275065883 0.1184837742 0.6226704737
0.2274997375 0.1250250215 0.8724991459
0.2322380865 0.2498537525 0.7409579279
0.2075065883 0.1184837742 0.6226704737
0.2074997375 0.1250250215 0.8724991459
0.2122380865 0.2498537525 0.7409579279
0.1875065883 0.1184837742 0.6226704737
0.1874997375 0.1250250215 0.8724991459
0.1922380865 0.2498537525 0.7409579279
0.1675065883 0.1184837742 0.6226704737
0.1674997375 0.1250250215 0.8724991459
0.1722380865 0.2498537525 0.7409579279
0.1475065883 0.1184837742 0.6226704737
0.1474997375 0.1250250215 0.8724991459
0.1522380865 0.2498537525 0.7409579279
0.1275065883 0.1184837742 0.6226704737
0.1274997375 0.1250250215 0.8724991459
0.1322380865 0.2498537525 0.7409579279
0.1075065883 0.1184837742 0.6226704737
0.1074997375 0.1250250215 0.8724991459
0.1122380865 0.2498537525 0.7409579279
0.0875065883 0.1184837752 0.6226704736
0.0874997375 0.1250250226 0.8724991459
0.0922380865 0.2498537525 0.7409579279
0.0675065882 0.1184838157 0.6226704726
0.0674997375 0.1250250631 0.8724991448
0.0722380878 0.2498537534 0.7409579279
0.047506583 0.118485569 0.622670419
0.047499736 0.1250265286 0.8724991065
0.0522381391 0.249853788 0.7409579681
0.0275063295 0.1186031915 0.6226645384
0.0274997268 0.1250353996 0.8724988813
0.0322401673 0.2498560292 0.740993104
0.0075015324 0.1210392333 0.6225814089
0.0074992091 0.1261955203 0.8724750236
0.0123097147 0.2499187899 0.7419741851
0.4975021571 0.130397005 0.8726696685
0.4775064416 0.1315559424 0.8726730602
0.4575065833 0.131564764 0.8726704418
0.4375065882 0.1315662273 0.8726704726
0.4175065883 0.1315662678 0.8726704736
0.3975065883 0.1315662688 0.8726704737
0.3775065883 0.1315662689 0.8726704737
0.3575065883 0.1315662689 0.8726704737
0.3375065883 0.1315662689 0.8726704737
0.3175065883 0.1315662689 0.8726704737
0.2975065883 0.1315662689 0.8726704737
0.2775065883 0.1315662689 0.8726704737
0.2575065883 0.1315662689 0.8726704737
0.2375065883 0.1315662689 0.8726704737
0.2175065883 0.1315662689 0.8726704737
0.1975065883 0.1315662689 0.8726704737
0.1775065883 0.1315662689 0.8726704737
0.1575065883 0.1315662689 0.8726704737
0.1375065883 0.1315662689 0.8726704737
0.1175065883 0.1315662688 0.8726704737
0.0975065883 0.1315662687 0.8726704737
0.0775065883 0.1315662623 0.8726704735
0.0575065875 0.1315660049 0.8726704666
0.0375065512 0.1315515921 0.8726698646
0.0175051406 0.1308808541 0.8726385842
0.4974985844 0.3775825339 0.1224180023
0.4774996148 0.3751446372 0.1224959624
0.4574997357 0.375026819 0.1224990989
0.4374997375 0.3750250631 0.1224991448
0.4174997375 0.3750250226 0.1224991459
0.3974997375 0.3750250215 0.1224991459
0.3774997375 0.3750250215 0.1224991459
0.3574997375 0.3750250215 0.1224991459
0.3374997375 0.3750250215 0.1224991459
0.3174997375 0.3750250215 0.1224991459
0.2974997375 0.3750250215 0.1224991459
0.2774997375 0.3750250215 0.1224991459
0.2574997375 0.3750250215 0.1224991459
0.2374997375 0.3750250215 0.1224991459
0.2174997375 0.3750250215 0.1224991459
0.1974997375 0.3750250215 0.1224991459
0.1774997375 0.3750250215 0.1224991459
0.1574997375 0.3750250215 0.1224991459
0.1374997375 0.3750250215 0.1224991459
0.1174997375 0.3750250215 0.1224991459
0.0974997375 0.3750250217 0.1224991459
0.0774997375 0.3750250281 0.1224991458
0.0574997373 0.3750252816 0.1224991391
0.0374997312 0.3750311204 0.1224989868
0.0174996525 0.3751167804 0.1224969734
0.4875056889 0.3814747158 0.1226834286
0.4874991042 0.3743386828 0.3724795452
0.4926897179 0.4998655141 0.2550585827
0.4675065602 0.3815601826 0.1226705394
0.4674997222 0.3750103204 0.3724987607
0.4727593036 0.4998541853 0.2540756695
0.4475065875 0.3815660091 0.122670467
0.4474997373 0.3750247572 0.372499139
0.4527613336 0.4998537859 0.2540404646
0.4275065883 0.3815662623 0.1226704735
0.4274997375 0.3750250149 0.3724991458
0.4327613849 0.4998537534 0.2540404226
0.4075065883 0.3815662687 0.1226704737
0.4074997375 0.3750250213 0.3724991459
0.4127613862 0.4998537525 0.2540404226
0.3875065883 0.3815662688 0.1226704737
0.3874997375 0.3750250215 0.3724991459
0.3927613863 0.4998537525 0.2540404226
0.3675065883 0.3815662689 0.1226704737
0.3674997375 0.3750250215 0.3724991459
0.3727613863 0.4998537525 0.2540404226
0.3475065883 0.3815662689 0.1226704737
0.3474997375 0.3750250215 0.3724991459
0.3527613863 0.4998537525 0.2540404226
0.3275065883 0.3815662689 0.1226704737
0.3274997375 0.3750250215 0.3724991459
0.3327613863 0.4998537525 0.2540404226
0.3075065883 0.3815662689 0.1226704737
0.3074997375 0.3750250215 0.3724991459
0.3127613863 0.4998537525 0.2540404226
0.2875065883 0.3815662689 0.1226704737
0.2874997375 0.3750250215 0.3724991459
0.2927613863 0.4998537525 0.2540404226
0.2675065883 0.3815662689 0.1226704737
0.2674997375 0.3750250215 0.3724991459
0.2727613863 0.4998537525 0.2540404226
0.2475065883 0.3815662689 0.1226704737
0.2474997375 0.3750250215 0.3724991459
0.2527613863 0.4998537525 0.2540404226
0.2275065883 0.3815662689 0.1226704737
0.2274997375 0.3750250215 0.3724991459
0.2327613863 0.4998537525 0.2540404226
0.2075065883 0.3815662689 0.1226704737
0.2074997375 0.3750250215 0.3724991459
0.2127613863 0.4998537525 0.2540404226
0.1875065883 0.3815662689 0.1226704737
0.1874997375 0.3750250215 0.3724991459
0.1927613863 0.4998537525 0.2540404226
0.1675065883 0.3815662689 0.1226704737
0.1674997375 0.3750250215 0.3724991459
0.1727613863 0.4998537525 0.2540404226
0.1475065883 0.3815662689 0.1226704737
0.1474997375 0.3750250215 0.3724991459
0.1527613863 0.4998537525 0.2540404226
0.1275065883 0.3815662689 0.1226704737
0.1274997375 0.3750250215 0.3724991459
0.1327613863 0.4998537525 0.2540404226
0.1075065883 0.3815662688 0.1226704737
0.1074997375 0.3750250215 0.3724991459
0.1127613863 0.4998537525 0.2540404226
0.0875065883 0.3815662678 0.1226704736
0.0874997375 0.3750250205 0.3724991459
0.0927613862 0.4998537525 0.2540404226
0.0675065882 0.3815662273 0.1226704726
0.0674997375 0.3750249799 0.3724991448
0.0727613849 0.4998537534 0.2540404226
0.047506583 0.381564474 0.122670419
0.047499736 0.3750235144 0.3724991065
0.0527613336 0.4998537879 0.2540403868
0.0275063295 0.3814468515 0.1226645384
0.0274997268 0.3750146434 0.3724988813
0.0327593054 0.4998559706 0.2540074942
0.0075015324 0.3790108097 0.1225814089
0.0074992091 0.3738545227 0.3724750236
0.0126897581 0.49991843 0.2530404125
0.4975021571 0.369653038 0.3726696685
0.4974985844 0.3775825339 0.6224180023
0.5024997364 0.4998942241 0.489414344
0.4775064416 0.3684941006 0.3726730602
0.4774996148 0.3751446372 0.6224959624
0.4822509421 0.4998545422 0.4906804622
0.4575065833 0.368485279 0.3726704418
0.4574997357 0.375026819 0.6224990989
0.462238418 0.4998539253 0.4909562411
0.4375065882 0.3684838157 0.3726704726
0.4374997375 0.3750250631 0.6224991448
0.4422380948 0.4998537579 0.4909579274
0.4175065883 0.3684837752 0.3726704736
0.4174997375 0.3750250226 0.6224991459
0.4222380867 0.4998537526 0.4909579279
0.3975065883 0.3684837742 0.3726704737
0.3974997375 0.3750250215 0.6224991459
0.4022380865 0.4998537525 0.4909579279
0.3775065883 0.3684837742 0.3726704737
0.3774997375 0.3750250215 0.6224991459
0.3822380865 0.4998537525 0.4909579279
0.3575065883 0.3684837742 0.3726704737
0.3574997375 0.3750250215 0.6224991459
0.3622380865 0.4998537525 0.4909579279
0.3375065883 0.3684837742 0.3726704737
0.3374997375 0.3750250215 0.6224991459
0.3422380865 0.4998537525 0.4909579279
0.3175065883 0.3684837742 0.3726704737
0.3174997375 0.3750250215 0.6224991459
0.3222380865 0.4998537525 0.4909579279
0.2975065883 0.3684837742 0.3726704737
0.2974997375 0.3750250215 0.6224991459
0.3022380865 0.4998537525 0.4909579279
0.2775065883 0.3684837742 0.3726704737
0.2774997375 0.3750250215 0.6224991459
0.2822380865 0.4998537525 0.4909579279
0.2575065883 0.3684837742 0.3726704737
0.2574997375 0.3750250215 0.6224991459
0.2622380865 0.4998537525 0.4909579279
0.2375065883 0.3684837742 0.3726704737
0.2374997375 0.3750250215 0.6224991459
0.2422380865 0.4998537525 0.4909579279
0.2175065883 0.3684837742 0.3726704737
0.2174997375 0.3750250215 0.6224991459
0.2222380865 0.4998537525 0.4909579279
0.1975065883 0.3684837742 0.3726704737
0.1974997375 0.3750250215 0.6224991459
0.2022380865 0.4998537525 0.4909579279
0.1775065883 0.3684837742 0.3726704737
0.1774997375 0.3750250215 0.6224991459
0.1822380865 0.4998537525 0.4909579279
0.1575065883 0.3684837742 0.3726704737
0.1574997375 0.3750250215 0.6224991459
0.1622380865 0.4998537525 0.4909579279
0.1375065883 0.3684837742 0.3726704737
0.1374997375 0.3750250215 0.6224991459
0.1422380865 0.4998537525 0.4909579279
0.1175065883 0.3684837742 0.3726704737
0.1174997375 0.3750250215 0.6224991459
0.1222380865 0.4998537525 0.4909579279
0.0975065883 0.3684837743 0.3726704737
0.0974997375 0.3750250217 0.6224991459
0.1022380865 0.4998537525 0.4909579279
0.0775065883 0.3684837808 0.3726704735
0.0774997375 0.3750250281 0.6224991458
0.0822380867 0.4998537526 0.4909579279
0.0575065875 0.3684840381 0.3726704666
0.0574997373 0.3750252816 0.6224991391
0.0622380948 0.499853758 0.4909579282
0.0375065512 0.3684984509 0.3726698646
0.0374997312 0.3750311204 0.6224989868
0.0422384179 0.4998540174 0.490959759
0.0175051406 0.3691691889 0.3726385842
0.0174996525 0.3751167804 0.6224969734
0.0222509273 0.4998693606 0.4912469174
0.0024997364 0.4999749785 0.4924975258
0.4875056889 0.3814747158 0.6226834286
0.4874991042 0.3743386828 0.8724795452
0.4926897179 0.4998655141 0.7550585827
0.4675065602 0.3815601826 0.6226705394
0.4674997222 0.3750103204 0.8724987607
0.4727593036 0.4998541853 0.7540756695
0.4475065875 0.3815660091 0.622670467
0.4474997373 0.3750247572 0.872499139
0.4527613336 0.4998537859 0.7540404646
0.4275065883 0.3815662623 0.6226704735
0.4274997375 0.3750250149 0.8724991458
0.4327613849 0.4998537534 0.7540404227
0.4075065883 0.3815662687 0.6226704736
0.4074997375 0.3750250213 0.8724991459
0.4127613862 0.4998537525 0.7540404226
0.3875065883 0.3815662688 0.6226704737
0.3874997375 0.3750250215 0.8724991459
0.3927613863 0.4998537525 0.7540404226
0.3675065883 0.3815662689 0.6226704737
0.3674997375 0.3750250215 0.8724991459
0.3727613863 0.4998537525 0.7540404226
0.3475065883 0.3815662689 0.6226704737
0.3474997375 0.3750250215 0.8724991459
0.3527613863 0.4998537525 0.7540404226
0.3275065883 0.3815662689 0.6226704737
0.3274997375 0.3750250215 0.8724991459
0.3327613863 0.4998537525 0.7540404226
0.3075065883 0.3815662689 0.6226704737
0.3074997375 0.3750250215 0.8724991459
0.3127613863 0.4998537525 0.7540404226
0.2875065883 0.3815662689 0.6226704737
0.2874997375 0.3750250215 0.8724991459
0.2927613863 0.4998537525 0.7540404226
0.2675065883 0.3815662689 0.6226704737
0.2674997375 0.3750250215 0.8724991459
0.2727613863 0.4998537525 0.7540404226
0.2475065883 0.3815662689 0.6226704737
0.2474997375 0.3750250215 0.8724991459
0.2527613863 0.4998537525 0.7540404226
0.2275065883 0.3815662689 0.6226704737
0.2274997375 0.3750250215 0.8724991459
0.2327613863 0.4998537525 0.7540404226
0.2075065883 0.3815662689 0.6226704737
0.2074997375 0.3750250215 0.8724991459
0.2127613863 0.4998537525 0.7540404226
0.1875065883 0.3815662689 0.6226704737
0.1874997375 0.3750250215 0.8724991459
0.1927613863 0.4998537525 0.7540404226
0.1675065883 0.3815662689 0.6226704737
0.1674997375 0.3750250215 0.8724991459
0.1727613863 0.4998537525 0.7540404226
0.1475065883 0.3815662689 0.6226704737
0.1474997375 0.3750250215 0.8724991459
0.1527613863 0.4998537525 0.7540404226
0.1275065883 0.3815662689 0.6226704737
0.1274997375 0.3750250215 0.8724991459
0.1327613863 0.4998537525 0.7540404226
0.1075065883 0.3815662688 0.6226704737
0.1074997375 0.3750250215 0.8724991459
0.1127613863 0.4998537525 0.7540404226
0.0875065883 0.3815662678 0.6226704736
0.0874997375 0.3750250205 0.8724991459
0.0927613862 0.4998537525 0.7540404226
0.0675065882 0.3815662273 0.6226704726
0.0674997375 0.3750249799 0.8724991448
0.0727613849 0.4998537534 0.7540404227
0.047506583 0.381564474 0.622670419
0.047499736 0.3750235144 0.8724991065
0.0527613336 0.4998537879 0.7540403868
0.0275063295 0.3814468515 0.6226645384
0.0274997268 0.3750146434 0.8724988813
0.0327593054 0.4998559706 0.7540074942
0.0075015324 0.3790108097 0.6225814089
0.0074992091 0.3738545227 0.8724750236
0.0126897581 0.49991843 0.7530404125
0.4975021571 0.369653038 0.8726696685
0.5024997364 0.4998942241 0.989414344
0.4775064416 0.3684941006 0.8726730602
0.4822509421 0.4998545422 0.9906804622
0.4575065833 0.368485279 0.8726704418
0.462238418 0.4998539253 0.9909562411
0.4375065882 0.3684838157 0.8726704726
0.4422380948 0.4998537579 0.9909579274
0.4175065883 0.3684837752 0.8726704736
0.4222380867 0.4998537526 0.9909579279
0.3975065883 0.3684837742 0.8726704737
0.4022380865 0.4998537525 0.9909579279
0.3775065883 0.3684837742 0.8726704737
0.3822380865 0.4998537525 0.9909579279
0.3575065883 0.3684837742 0.8726704737
0.3622380865 0.4998537525 0.9909579279
0.3375065883 0.3684837742 0.8726704737
0.3422380865 0.4998537525 0.9909579279
0.3175065883 0.3684837742 0.8726704737
0.3222380865 0.4998537525 0.9909579279
0.2975065883 0.3684837742 0.8726704737
0.3022380865 0.4998537525 0.9909579279
0.2775065883 0.3684837742 0.8726704737
0.2822380865 0.4998537525 0.9909579279
0.2575065883 0.3684837742 0.8726704737
0.2622380865 0.4998537525 0.9909579279
0.2375065883 0.3684837742 0.8726704737
0.2422380865 0.4998537525 0.9909579279
0.2175065883 0.3684837742 0.8726704737
0.2222380865 0.4998537525 0.9909579279
0.1975065883 0.3684837742 0.8726704737
0.2022380865 0.4998537525 0.9909579279
0.1775065883 0.3684837742 0.8726704737
0.1822380865 0.4998537525 0.9909579279
0.1575065883 0.3684837742 0.8726704737
0.1622380865 0.4998537525 0.9909579279
0.1375065883 0.3684837742 0.8726704737
0.1422380865 0.4998537525 0.9909579279
0.1175065883 0.3684837742 0.8726704737
0.1222380865 0.4998537525 0.9909579279
0.0975065883 0.3684837743 0.8726704737
0.1022380865 0.4998537525 0.9909579279
0.0775065883 0.3684837808 0.8726704735
0.0822380867 0.4998537526 0.9909579279
0.0575065875 0.3684840381 0.8726704666
0.0622380948 0.499853758 0.9909579282
0.0375065512 0.3684984509 0.8726698646
0.0422384179 0.4998540174 0.990959759
0.0175051406 0.3691691889 0.8726385842
0.0222509273 0.4998693606 0.9912469174
0.0024997364 0.4999749785 0.9924975258
0.4974985844 0.6224675091 0.1224180023
0.5024997364 0.7498942241 0.0055840065
0.4774996148 0.6249054058 0.1224959624
0.4827485307 0.749854216 0.0043298243
0.4574997357 0.625023224 0.1224990989
0.4627610548 0.7498539212 0.0040422651
0.4374997375 0.6250249799 0.1224991448
0.4427613779 0.7498537579 0.0040404232
0.4174997375 0.6250250205 0.1224991459
0.4227613861 0.7498537526 0.0040404226
0.3974997375 0.6250250215 0.1224991459
0.4027613863 0.7498537525 0.0040404226
0.3774997375 0.6250250215 0.1224991459
0.3827613863 0.7498537525 0.0040404226
0.3574997375 0.6250250215 0.1224991459
0.3627613863 0.7498537525 0.0040404226
0.3374997375 0.6250250215 0.1224991459
0.3427613863 0.7498537525 0.0040404226
0.3174997375 0.6250250215 0.1224991459
0.3227613863 0.7498537525 0.0040404226
0.2974997375 0.6250250215 0.1224991459
0.3027613863 0.7498537525 0.0040404226
0.2774997375 0.6250250215 0.1224991459
0.2827613863 0.7498537525 0.0040404226
0.2574997375 0.6250250215 0.1224991459
0.2627613863 0.7498537525 0.0040404226
0.2374997375 0.6250250215 0.1224991459
0.2427613863 0.7498537525 0.0040404226
0.2174997375 0.6250250215 0.1224991459
0.2227613863 0.7498537525 0.0040404226
0.1974997375 0.6250250215 0.1224991459
0.2027613863 0.7498537525 0.0040404226
0.1774997375 0.6250250215 0.1224991459
0.1827613863 0.7498537525 0.0040404226
0.1574997375 0.6250250215 0.1224991459
0.1627613863 0.7498537525 0.0040404226
0.1374997375 0.6250250215 0.1224991459
0.1427613863 0.7498537525 0.0040404226
0.1174997375 0.6250250215 0.1224991459
0.1227613863 0.7498537525 0.0040404226
0.0974997375 0.6250250213 0.1224991459
0.1027613863 0.7498537525 0.0040404226
0.0774997375 0.6250250149 0.1224991458
0.0827613861 0.7498537526 0.0040404226
0.0574997373 0.6250247614 0.1224991391
0.0627613779 0.749853758 0.0040404224
0.0374997312 0.6250189226 0.1224989868
0.0427610549 0.7498540133 0.0040387472
0.0174996525 0.6249332626 0.1224969734
0.0227485454 0.7498690615 0.0037633704
0.0024997364 0.7499749785 0.0025008247
0.4875056889 0.6185753272 0.1226834286
0.4874991042 0.6257113602 0.3724795452
0.4923097549 0.7498660052 0.239956008
0.4675065602 0.6184898604 0.1226705394
0.4674997222 0.6250397227 0.3724987607
0.4722401692 0.7498542445 0.2409249287
0.4475065875 0.6184840339 0.122670467
0.4474997373 0.6250252858 0.372499139
0.4522381391 0.749853786 0.2409578903
0.4275065883 0.6184837808 0.1226704735
0.4274997375 0.6250250281 0.3724991458
0.4322380878 0.7498537534 0.2409579279
0.4075065883 0.6184837743 0.1226704737
0.4074997375 0.6250250217 0.3724991459
0.4122380865 0.7498537525 0.2409579279
0.3875065883 0.6184837742 0.1226704737
0.3874997375 0.6250250215 0.3724991459
0.3922380865 0.7498537525 0.2409579279
0.3675065883 0.6184837742 0.1226704737
0.3674997375 0.6250250215 0.3724991459
0.3722380865 0.7498537525 0.2409579279
0.3475065883 0.6184837742 0.1226704737
0.3474997375 0.6250250215 0.3724991459
0.3522380865 0.7498537525 0.2409579279
0.3275065883 0.6184837742 0.1226704737
0.3274997375 0.6250250215 0.3724991459
0.3322380865 0.7498537525 0.2409579279
0.3075065883 0.6184837742 0.1226704737
0.3074997375 0.6250250215 0.3724991459
0.3122380865 0.7498537525 0.2409579279
0.2875065883 0.6184837742 0.1226704737
0.2874997375 0.6250250215 0.3724991459
0.2922380865 0.7498537525 0.2409579279
0.2675065883 0.6184837742 0.1226704737
0.2674997375 0.6250250215 0.3724991459
0.2722380865 0.7498537525 0.2409579279
0.2475065883 0.6184837742 0.1226704737
0.2474997375 0.6250250215 0.3724991459
0.2522380865 0.7498537525 0.2409579279
0.2275065883 0.6184837742 0.1226704737
0.2274997375 0.6250250215 0.3724991459
0.2322380865 0.7498537525 0.2409579279
0.2075065883 0.6184837742 0.1226704737
0.2074997375 0.6250250215 0.3724991459
0.2122380865 0.7498537525 0.2409579279
0.1875065883 0.6184837742 0.1226704737
0.1874997375 0.6250250215 0.3724991459
0.1922380865 0.7498537525 0.2409579279
0.1675065883 0.6184837742 0.1226704737
0.1674997375 0.6250250215 0.3724991459
0.1722380865 0.7498537525 0.2409579279
0.1475065883 0.6184837742 0.1226704737
0.1474997375 0.6250250215 0.3724991459
0.1522380865 0.7498537525 0.2409579279
0.1275065883 0.6184837742 0.1226704737
0.1274997375 0.6250250215 0.3724991459
0.1322380865 0.7498537525 0.2409579279
0.1075065883 0.6184837742 0.1226704737
0.1074997375 0.6250250215 0.3724991459
0.1122380865 0.7498537525 0.2409579279
0.0875065883 0.6184837752 0.1226704736
0.0874997375 0.6250250226 0.3724991459
0.0922380865 0.7498537525 0.2409579279
0.0675065882 0.6184838157 0.1226704726
0.0674997375 0.6250250631 0.3724991448
0.0722380878 0.7498537534 0.2409579279
0.047506583 0.618485569 0.122670419
0.047499736 0.6250265286 0.3724991065
0.0522381391 0.749853788 0.2409579681
0.0275063295 0.6186031915 0.1226645384
0.0274997268 0.6250353996 0.3724988813
0.0322401673 0.7498560292 0.240993104
0.0075015324 0.6210392333 0.1225814089
0.0074992091 0.6261955203 0.3724750236
0.0123097147 0.7499187899 0.2419741851
0.4975021571 0.630397005 0.3726696685
0.4974985844 0.6224675091 0.6224180023
0.5024997364 0.7498942241 0.5055840065
0.4775064416 0.6315559424 0.3726730602
0.4774996148 0.6249054058 0.6224959624
0.4827485307 0.749854216 0.5043298243
0.4575065833 0.631564764 0.3726704418
0.4574997357 0.625023224 0.6224990989
0.4627610548 0.7498539212 0.5040422651
0.4375065882 0.6315662273 0.3726704726
0.4374997375 0.6250249799 0.6224991448
0.4427613779 0.7498537579 0.5040404232
0.4175065883 0.6315662678 0.3726704736
0.4174997375 0.6250250205 0.6224991459
0.4227613861 0.7498537526 0.5040404226
0.3975065883 0.6315662688 0.3726704737
0.3974997375 0.6250250215 0.6224991459
0.4027613863 0.7498537525 0.5040404226
0.3775065883 0.6315662689 0.3726704737
0.3774997375 0.6250250215 0.6224991459
0.3827613863 0.7498537525 0.5040404226
0.3575065883 0.6315662689 0.3726704737
0.3574997375 0.6250250215 0.6224991459
0.3627613863 0.7498537525 0.5040404226
0.3375065883 0.6315662689 0.3726704737
0.3374997375 0.6250250215 0.6224991459
0.3427613863 0.7498537525 0.5040404226
0.3175065883 0.6315662689 0.3726704737
0.3174997375 0.6250250215 0.6224991459
0.3227613863 0.7498537525 0.5040404226
0.2975065883 0.6315662689 0.3726704737
0.2974997375 0.6250250215 0.6224991459
0.3027613863 0.7498537525 0.5040404226
0.2775065883 0.6315662689 0.3726704737
0.2774997375 0.6250250215 0.6224991459
0.2827613863 0.7498537525 0.5040404226
0.2575065883 0.6315662689 0.3726704737
0.2574997375 0.6250250215 0.6224991459
0.2627613863 0.7498537525 0.5040404226
0.2375065883 0.6315662689 0.3726704737
0.2374997375 0.6250250215 0.6224991459
0.2427613863 0.7498537525 0.5040404226
0.2175065883 0.6315662689 0.3726704737
0.2174997375 0.6250250215 0.6224991459
0.2227613863 0.7498537525 0.5040404226
0.1975065883 0.6315662689 0.3726704737
0.1974997375 0.6250250215 0.6224991459
0.2027613863 0.7498537525 0.5040404226
0.1775065883 0.6315662689 0.3726704737
0.1774997375 0.6250250215 0.6224991459
0.1827613863 0.7498537525 0.5040404226
0.1575065883 0.6315662689 0.3726704737
0.1574997375 0.6250250215 0.6224991459
0.1627613863 0.7498537525 0.5040404226
0.1375065883 0.6315662689 0.3726704737
0.1374997375 0.6250250215 0.6224991459
0.1427613863 0.7498537525 0.5040404226
0.1175065883 0.6315662688 0.3726704737
0.1174997375 0.6250250215 0.6224991459
0.1227613863 0.7498537525 0.5040404226
0.0975065883 0.6315662687 0.3726704737
0.0974997375 0.6250250213 0.6224991459
0.1027613863 0.7498537525 0.5040404226
0.0775065883 0.6315662623 0.3726704735
0.0774997375 0.6250250149 0.6224991458
0.0827613861 0.7498537526 0.5040404226
0.0575065875 0.6315660049 0.3726704666
0.0574997373 0.6250247614 0.6224991391
0.0627613779 0.749853758 0.5040404224
0.0375065512 0.6315515921 0.3726698646
0.0374997312 0.6250189226 0.6224989868
0.0427610549 0.7498540133 0.5040387472
0.0175051406 0.6308808541 0.3726385842
0.0174996525 0.6249332626 0.6224969734
0.0227485454 0.7498690615 0.5037633704
0.0024997364 0.7499749785 0.5025008247
0.4875056889 0.6185753272 0.6226834286
0.4874991042 0.6257113602 0.8724795452
0.4923097549 0.7498660052 0.739956008
0.4675065602 0.6184898604 0.6226705394
0.4674997222 0.6250397227 0.8724987607
0.4722401692 0.7498542445 0.7409249287
0.4475065875 0.6184840339 0.622670467
0.4474997373 0.6250252858 0.872499139
0.4522381391 0.749853786 0.7409578903
0.4275065883 0.6184837808 0.6226704735
0.4274997375 0.6250250281 0.8724991458
0.4322380878 0.7498537534 0.7409579279
0.4075065883 0.6184837743 0.6226704736
0.4074997375 0.6250250217 0.8724991459
0.4122380865 0.7498537525 0.7409579279
0.3875065883 0.6184837742 0.6226704737
0.3874997375 0.6250250215 0.8724991459
0.3922380865 0.7498537525 0.7409579279
0.3675065883 0.6184837742 0.6226704737
0.3674997375 0.6250250215 0.8724991459
0.3722380865 0.7498537525 0.7409579279
0.3475065883 0.6184837742 0.6226704737
0.3474997375 0.6250250215 0.8724991459
0.3522380865 0.7498537525 0.7409579279
0.3275065883 0.6184837742 0.6226704737
0.3274997375 0.6250250215 0.8724991459
0.3322380865 0.7498537525 0.7409579279
0.3075065883 0.6184837742 0.6226704737
0.3074997375 0.6250250215 0.8724991459
0.3122380865 0.7498537525 0.7409579279
0.2875065883 0.6184837742 0.6226704737
0.2874997375 0.6250250215 0.8724991459
0.2922380865 0.7498537525 0.7409579279
0.2675065883 0.6184837742 0.6226704737
0.2674997375 0.6250250215 0.8724991459
0.2722380865 0.7498537525 0.7409579279
0.2475065883 0.6184837742 0.6226704737
0.2474997375 0.6250250215 0.8724991459
0.2522380865 0.7498537525 0.7409579279
0.2275065883 0.6184837742 0.6226704737
0.2274997375 0.6250250215 0.8724991459
0.2322380865 0.7498537525 0.7409579279
0.2075065883 0.6184837742 0.6226704737
0.2074997375 0.6250250215 0.8724991459
0.2122380865 0.7498537525 0.7409579279
0.1875065883 0.6184837742 0.6226704737
0.1874997375 0.6250250215 0.8724991459
0.1922380865 0.7498537525 0.7409579279
0.1675065883 0.6184837742 0.6226704737
0.1674997375 0.6250250215 0.8724991459
0.1722380865 0.7498537525 0.7409579279
0.1475065883 0.6184837742 0.6226704737
0.1474997375 0.6250250215 0.8724991459
0.1522380865 0.7498537525 0.7409579279
0.1275065883 0.6184837742 0.6226704737
0.1274997375 0.6250250215 0.8724991459
0.1322380865 0.7498537525 0.7409579279
0.1075065883 0.6184837742 0.6226704737
0.1074997375 0.6250250215 0.8724991459
0.1122380865 0.7498537525 0.7409579279
0.0875065883 0.6184837752 0.6226704736
0.0874997375 0.6250250226 0.8724991459
0.0922380865 0.7498537525 0.7409579279
0.0675065882 0.6184838157 0.6226704726
0.0674997375 0.6250250631 0.8724991448
0.0722380878 0.7498537534 0.7409579279
0.047506583 0.618485569 0.622670419
0.047499736 0.6250265286 0.8724991065
0.0522381391 0.749853788 0.7409579681
0.0275063295 0.6186031915 0.6226645384
0.0274997268 0.6250353996 0.8724988813
0.0322401673 0.7498560292 0.740993104
0.0075015324 0.6210392333 0.6225814089
0.0074992091 0.6261955203 0.8724750236
0.0123097147 0.7499187899 0.7419741851
0.4975021571 0.630397005 0.8726696685
0.4775064416 0.6315559424 0.8726730602
0.4575065833 0.631564764 0.8726704418
0.4375065882 0.6315662273 0.8726704726
0.4175065883 0.6315662678 0.8726704736
0.3975065883 0.6315662688 0.8726704737
0.3775065883 0.6315662689 0.8726704737
0.3575065883 0.6315662689 0.8726704737
0.3375065883 0.6315662689 0.8726704737
0.3175065883 0.6315662689 0.8726704737
0.2975065883 0.6315662689 0.8726704737
0.2775065883 0.6315662689 0.8726704737
0.2575065883 0.6315662689 0.8726704737
0.2375065883 0.6315662689 0.8726704737
0.2175065883 0.6315662689 0.8726704737
0.1975065883 0.6315662689 0.8726704737
0.1775065883 0.6315662689 0.8726704737
0.1575065883 0.6315662689 0.8726704737
0.1375065883 0.6315662689 0.8726704737
0.1175065883 0.6315662688 0.8726704737
0.0975065883 0.6315662687 0.8726704737
0.0775065883 0.6315662623 0.8726704735
0.0575065875 0.6315660049 0.8726704666
0.0375065512 0.6315515921 0.8726698646
0.0175051406 0.6308808541 0.8726385842
0.4974985844 0.8775825339 0.1224180023
0.4774996148 0.8751446372 0.1224959624
0.4574997357 0.875026819 0.1224990989
0.4374997375 0.8750250631 0.1224991448
0.4174997375 0.8750250226 0.1224991459
0.3974997375 0.8750250215 0.1224991459
0.3774997375 0.8750250215 0.1224991459
0.3574997375 0.8750250215 0.1224991459
0.3374997375 0.8750250215 0.1224991459
0.3174997375 0.8750250215 0.1224991459
0.2974997375 0.8750250215 0.1224991459
0.2774997375 0.8750250215 0.1224991459
0.2574997375 0.8750250215 0.1224991459
0.2374997375 0.8750250215 0.1224991459
0.2174997375 0.8750250215 0.1224991459
0.1974997375 0.8750250215 0.1224991459
0.1774997375 0.8750250215 0.1224991459
0.1574997375 0.8750250215 0.1224991459
0.1374997375 0.8750250215 0.1224991459
0.1174997375 0.8750250215 0.1224991459
0.0974997375 0.8750250217 0.1224991459
0.0774997375 0.8750250281 0.1224991458
0.0574997373 0.8750252816 0.1224991391
0.0374997312 0.8750311204 0.1224989868
0.0174996525 0.8751167804 0.1224969734
0.4875056889 0.8814747158 0.1226834286
0.4874991042 0.8743386828 0.3724795452
0.4926897179 0.9998655141 0.2550585827
0.4675065602 0.8815601826 0.1226705394
0.4674997222 0.8750103204 0.3724987607
0.4727593036 0.9998541853 0.2540756695
0.4475065875 0.8815660091 0.122670467
0.4474997373 0.8750247572 0.372499139
0.4527613336 0.9998537859 0.2540404646
0.4275065883 0.8815662623 0.1226704735
0.4274997375 0.8750250149 0.3724991458
0.4327613849 0.9998537534 0.2540404226
0.4075065883 0.8815662687 0.1226704737
0.4074997375 0.8750250213 0.3724991459
0.4127613862 0.9998537525 0.2540404226
0.3875065883 0.8815662688 0.1226704737
0.3874997375 0.8750250215 0.3724991459
0.3927613863 0.9998537525 0.2540404226
0.3675065883 0.8815662689 0.1226704737
0.3674997375 0.8750250215 0.3724991459
0.3727613863 0.9998537525 0.2540404226
0.3475065883 0.8815662689 0.1226704737
0.3474997375 0.8750250215 0.3724991459
0.3527613863 0.9998537525 0.2540404226
0.3275065883 0.8815662689 0.1226704737
0.3274997375 0.8750250215 0.3724991459
0.3327613863 0.9998537525 0.2540404226
0.3075065883 0.8815662689 0.1226704737
0.3074997375 0.8750250215 0.3724991459
0.3127613863 0.9998537525 0.2540404226
0.2875065883 0.8815662689 0.1226704737
0.2874997375 0.8750250215 0.3724991459
0.2927613863 0.9998537525 0.2540404226
0.2675065883 0.8815662689 0.1226704737
0.2674997375 0.8750250215 0.3724991459
0.2727613863 0.9998537525 0.2540404226
0.2475065883 0.8815662689 0.1226704737
0.2474997375 0.8750250215 0.3724991459
0.2527613863 0.9998537525 0.2540404226
0.2275065883 0.8815662689 0.1226704737
0.2274997375 0.8750250215 0.3724991459
0.2327613863 0.9998537525 0.2540404226
0.2075065883 0.8815662689 0.1226704737
0.2074997375 0.8750250215 0.3724991459
0.2127613863 0.9998537525 0.2540404226
0.1875065883 0.8815662689 0.1226704737
0.1874997375 0.8750250215 0.3724991459
0.1927613863 0.9998537525 0.2540404226
0.1675065883 0.8815662689 0.1226704737
0.1674997375 0.8750250215 0.3724991459
0.1727613863 0.9998537525 0.2540404226
0.1475065883 0.8815662689 0.1226704737
0.1474997375 0.8750250215 0.3724991459
0.1527613863 0.9998537525 0.2540404226
0.1275065883 0.8815662689 0.1226704737
0.1274997375 0.8750250215 0.3724991459
0.1327613863 0.9998537525 0.2540404226
0.1075065883 0.8815662688 0.1226704737
0.1074997375 0.8750250215 0.3724991459
0.1127613863 0.9998537525 0.2540404226
0.0875065883 0.8815662678 0.1226704736
0.0874997375 0.8750250205 0.3724991459
0.0927613862 0.9998537525 0.2540404226
0.0675065882 0.8815662273 0.1226704726
0.0674997375 0.8750249799 0.3724991448
0.0727613849 0.9998537534 0.2540404226
0.047506583 0.881564474 0.122670419
0.047499736 0.8750235144 0.3724991065
0.0527613336 0.9998537879 0.2540403868
0.0275063295 0.8814468515 0.1226645384
0.0274997268 0.8750146434 0.3724988813
0.0327593054 0.9998559706 0.2540074942
0.0075015324 0.8790108097 0.1225814089
0.0074992091 0.8738545227 0.3724750236
0.0126897581 0.99991843 0.2530404125
0.4975021571 0.869653038 0.3726696685
0.4974985844 0.8775825339 0.6224180023
0.5024997364 0.9998942241 0.489414344
0.4775064416 0.8684941006 0.3726730602
0.4774996148 0.8751446372 0.6224959624
0.4822509421 0.9998545422 0.4906804622
0.4575065833 0.868485279 0.3726704418
0.4574997357 0.875026819 0.6224990989
0.462238418 0.9998539253 0.4909562411
0.4375065882 0.8684838157 0.3726704726
0.4374997375 0.8750250631 0.6224991448
0.4422380948 0.9998537579 0.4909579274
0.4175065883 0.8684837752 0.3726704736
0.4174997375 0.8750250226 0.6224991459
0.4222380867 0.9998537526 0.4909579279
0.3975065883 0.8684837742 0.3726704737
0.3974997375 0.8750250215 0.6224991459
0.4022380865 0.9998537525 0.4909579279
0.3775065883 0.8684837742 0.3726704737
0.3774997375 0.8750250215 0.6224991459
0.3822380865 0.9998537525 0.4909579279
0.3575065883 0.8684837742 0.3726704737
0.3574997375 0.8750250215 0.6224991459
0.3622380865 0.9998537525 0.4909579279
0.3375065883 0.8684837742 0.3726704737
0.3374997375 0.8750250215 0.6224991459
0.3422380865 0.9998537525 0.4909579279
0.3175065883 0.8684837742 0.3726704737
0.3174997375 0.8750250215 0.6224991459
0.3222380865 0.9998537525 0.4909579279
0.2975065883 0.8684837742 0.3726704737
0.2974997375 0.8750250215 0.6224991459
0.3022380865 0.9998537525 0.4909579279
0.2775065883 0.8684837742 0.3726704737
0.2774997375 0.8750250215 0.6224991459
0.2822380865 0.9998537525 0.4909579279
0.2575065883 0.8684837742 0.3726704737
0.2574997375 0.8750250215 0.6224991459
0.2622380865 0.9998537525 0.4909579279
0.2375065883 0.8684837742 0.3726704737
0.2374997375 0.8750250215 0.6224991459
0.2422380865 0.9998537525 0.4909579279
0.2175065883 0.8684837742 0.3726704737
0.2174997375 0.8750250215 0.6224991459
0.2222380865 0.9998537525 0.4909579279
0.1975065883 0.8684837742 0.3726704737
0.1974997375 0.8750250215 0.6224991459
0.2022380865 0.9998537525 0.4909579279
0.1775065883 0.8684837742 0.3726704737
0.1774997375 0.8750250215 0.6224991459
0.1822380865 0.9998537525 0.4909579279
0.1575065883 0.8684837742 0.3726704737
0.1574997375 0.8750250215 0.6224991459
0.1622380865 0.9998537525 0.4909579279
0.1375065883 0.8684837742 0.3726704737
0.1374997375 0.8750250215 0.6224991459
0.1422380865 0.9998537525 0.4909579279
0.1175065883 0.8684837742 0.3726704737
0.1174997375 0.8750250215 0.6224991459
0.1222380865 0.9998537525 0.4909579279
0.0975065883 0.8684837743 0.3726704737
0.0974997375 0.8750250217 0.6224991459
0.1022380865 0.9998537525 0.4909579279
0.0775065883 0.8684837808 0.3726704735
0.0774997375 0.8750250281 0.6224991458
0.0822380867 0.9998537526 0.4909579279
0.0575065875 0.8684840381 0.3726704666
0.0574997373 0.8750252816 0.6224991391
0.0622380948 0.999853758 0.4909579282
0.0375065512 0.8684984509 0.3726698646
0.0374997312 0.8750311204 0.6224989868
0.0422384179 0.9998540174 0.490959759
0.0175051406 0.8691691889 0.3726385842
0.0174996525 0.8751167804 0.6224969734
0.0222509273 0.9998693606 0.4912469174
0.0024997364 0.9999749785 0.4924975258
0.4875056889 0.8814747158 0.6226834286
0.4874991042 0.8743386828 0.8724795452
0.4926897179 0.9998655141 0.7550585827
0.4675065602 0.8815601826 0.6226705394
0.4674997222 0.8750103204 0.8724987607
0.4727593036 0.9998541853 0.7540756695
0.4475065875 0.8815660091 0.622670467
0.4474997373 0.8750247572 0.872499139
0.4527613336 0.9998537859 0.7540404646
0.4275065883 0.8815662623 0.6226704735
0.4274997375 0.8750250149 0.8724991458
0.4327613849 0.9998537534 0.7540404227
0.4075065883 0.8815662687 0.6226704736
0.4074997375 0.8750250213 0.8724991459
0.4127613862 0.9998537525 0.7540404226
0.3875065883 0.8815662688 0.6226704737
0.3874997375 0.8750250215 0.8724991459
0.3927613863 0.9998537525 0.7540404226
0.3675065883 0.8815662689 0.6226704737
0.3674997375 0.8750250215 0.8724991459
0.3727613863 0.9998537525 0.7540404226
0.3475065883 0.8815662689 0.6226704737
0.3474997375 0.8750250215 0.8724991459
0.3527613863 0.9998537525 0.7540404226
0.3275065883 0.8815662689 0.6226704737
0.3274997375 0.8750250215 0.8724991459
0.3327613863 0.9998537525 0.7540404226
0.3075065883 0.8815662689 0.6226704737
0.3074997375 0.8750250215 0.8724991459
0.3127613863 0.9998537525 0.7540404226
0.2875065883 0.8815662689 0.6226704737
0.2874997375 0.8750250215 0.8724991459
0.2927613863 0.9998537525 0.7540404226
0.2675065883 0.8815662689 0.6226704737
0.2674997375 0.8750250215 0.8724991459
0.2727613863 0.9998537525 0.7540404226
0.2475065883 0.8815662689 0.6226704737
0.2474997375 0.8750250215 0.8724991459
0.2527613863 0.9998537525 0.7540404226
0.2275065883 0.8815662689 0.6226704737
0.2274997375 0.8750250215 0.8724991459
0.2327613863 0.9998537525 0.7540404226
0.2075065883 0.8815662689 0.6226704737
0.2074997375 0.8750250215 0.8724991459
0.2127613863 0.9998537525 0.7540404226
0.1875065883 0.8815662689 0.6226704737
0.1874997375 0.8750250215 0.8724991459
0.1927613863 0.9998537525 0.7540404226
0.1675065883 0.8815662689 0.6226704737
0.1674997375 0.8750250215 0.8724991459
0.1727613863 0.9998537525 0.7540404226
0.1475065883 0.8815662689 0.6226704737
0.1474997375 0.8750250215 0.8724991459
0.1527613863 0.9998537525 0.7540404226
0.1275065883 0.8815662689 0.6226704737
0.1274997375 0.8750250215 0.8724991459
0.1327613863 0.9998537525 0.7540404226
0.1075065883 0.8815662688 0.6226704737
0.1074997375 0.8750250215 0.8724991459
0.1127613863 0.9998537525 0.7540404226
0.0875065883 0.8815662678 0.6226704736
0.0874997375 0.8750250205 0.8724991459
0.0927613862 0.9998537525 0.7540404226
0.0675065882 0.8815662273 0.6226704726
0.0674997375 0.8750249799 0.8724991448
0.0727613849 0.9998537534 0.7540404227
0.047506583 0.881564474 0.622670419
0.047499736 0.8750235144 0.8724991065
0.0527613336 0.9998537879 0.7540403868
0.0275063295 0.8814468515 0.6226645384
0.0274997268 0.8750146434 0.8724988813
0.0327593054 0.9998559706 0.7540074942
0.0075015324 0.8790108097 0.6225814089
0.0074992091 0.8738545227 0.8724750236
0.0126897581 0.99991843 0.7530404125
0.4975021571 0.869653038 0.8726696685
0.5024997364 0.9998942241 0.989414344
0.4775064416 0.8684941006 0.8726730602
0.4822509421 0.9998545422 0.9906804622
0.4575065833 0.868485279 0.8726704418
0.462238418 0.9998539253 0.9909562411
0.4375065882 0.8684838157 0.8726704726
0.4422380948 0.9998537579 0.9909579274
0.4175065883 0.8684837752 0.8726704736
0.4222380867 0.9998537526 0.9909579279
0.3975065883 0.8684837742 0.8726704737
0.4022380865 0.9998537525 0.9909579279
0.3775065883 0.8684837742 0.8726704737
0.3822380865 0.9998537525 0.9909579279
0.3575065883 0.8684837742 0.8726704737
0.3622380865 0.9998537525 0.9909579279
0.3375065883 0.8684837742 0.8726704737
0.3422380865 0.9998537525 0.9909579279
0.3175065883 0.8684837742 0.8726704737
0.3222380865 0.9998537525 0.9909579279
0.2975065883 0.8684837742 0.8726704737
0.3022380865 0.9998537525 0.9909579279
0.2775065883 0.8684837742 0.8726704737
0.2822380865 0.9998537525 0.9909579279
0.2575065883 0.8684837742 0.8726704737
0.2622380865 0.9998537525 0.9909579279
0.2375065883 0.8684837742 0.8726704737
0.2422380865 0.9998537525 0.9909579279
0.2175065883 0.8684837742 0.8726704737
0.2222380865 0.9998537525 0.9909579279
0.1975065883 0.8684837742 0.8726704737
0.2022380865 0.9998537525 0.9909579279
0.1775065883 0.8684837742 0.8726704737
0.1822380865 0.9998537525 0.9909579279
0.1575065883 0.8684837742 0.8726704737
0.1622380865 0.9998537525 0.9909579279
0.1375065883 0.8684837742 0.8726704737
0.1422380865 0.9998537525 0.9909579279
0.1175065883 0.8684837742 0.8726704737
0.1222380865 0.9998537525 0.9909579279
0.0975065883 0.8684837743 0.8726704737
0.1022380865 0.9998537525 0.9909579279
0.0775065883 0.8684837808 0.8726704735
0.0822380867 0.9998537526 0.9909579279
0.0575065875 0.8684840381 0.8726704666
0.0622380948 0.999853758 0.9909579282
0.0375065512 0.8684984509 0.8726698646
0.0422384179 0.9998540174 0.990959759
0.0175051406 0.8691691889 0.8726385842
0.0222509273 0.9998693606 0.9912469174
0.0024997364 0.9999749785 0.9924975258
0.5075008884 0.1224675091 0.1224180023
0.527499858 0.1249054058 0.1224959624
0.5222509421 0.249854216 0.0043298243
0.5474997371 0.125023224 0.1224990989
0.542238418 0.2498539212 0.0040422651
0.5674997352 0.1250249799 0.1224991448
0.5622380948 0.2498537579 0.0040404232
0.5874997352 0.1250250205 0.1224991459
0.5822380867 0.2498537526 0.0040404226
0.6074997352 0.1250250215 0.1224991459
0.6022380865 0.2498537525 0.0040404226
0.6274997352 0.1250250215 0.1224991459
0.6222380865 0.2498537525 0.0040404226
0.6474997352 0.1250250215 0.1224991459
0.6422380865 0.2498537525 0.0040404226
0.6674997352 0.1250250215 0.1224991459
0.6622380865 0.2498537525 0.0040404226
0.6874997352 0.1250250215 0.1224991459
0.6822380865 0.2498537525 0.0040404226
0.7074997352 0.1250250215 0.1224991459
0.7022380865 0.2498537525 0.0040404226
0.7274997352 0.1250250215 0.1224991459
0.7222380865 0.2498537525 0.0040404226
0.7474997352 0.1250250215 0.1224991459
0.7422380865 0.2498537525 0.0040404226
0.7674997352 0.1250250215 0.1224991459
0.7622380865 0.2498537525 0.0040404226
0.7874997352 0.1250250215 0.1224991459
0.7822380865 0.2498537525 0.0040404226
0.8074997352 0.1250250215 0.1224991459
0.8022380865 0.2498537525 0.0040404226
0.8274997352 0.1250250215 0.1224991459
0.8222380865 0.2498537525 0.0040404226
0.8474997352 0.1250250215 0.1224991459
0.8422380865 0.2498537525 0.0040404226
0.8674997352 0.1250250215 0.1224991459
0.8622380865 0.2498537525 0.0040404226
0.8874997352 0.1250250215 0.1224991459
0.8822380865 0.2498537525 0.0040404226
0.9074997352 0.1250250213 0.1224991459
0.9022380865 0.2498537525 0.0040404226
0.9274997352 0.1250250149 0.1224991458
0.9222380867 0.2498537526 0.0040404226
0.9474997355 0.1250247614 0.1224991391
0.9422380948 0.249853758 0.0040404224
0.9674997416 0.1250189226 0.1224989868
0.9622384179 0.2498540133 0.0040387472
0.9874998202 0.1249332626 0.1224969734
0.9822509273 0.2498690615 0.0037633704
0.5174937838 0.1185753272 0.1226834286
0.5175003686 0.1257113602 0.3724795452
0.5126897179 0.2498660052 0.239956008
0.5374929126 0.1184898604 0.1226705394
0.5374997505 0.1250397227 0.3724987607
0.5327593036 0.2498542445 0.2409249287
0.5574928853 0.1184840339 0.122670467
0.5574997355 0.1250252858 0.372499139
0.5527613336 0.249853786 0.2409578903
0.5774928845 0.1184837808 0.1226704735
0.5774997352 0.1250250281 0.3724991458
0.5727613849 0.2498537534 0.2409579279
0.5974928844 0.1184837743 0.1226704737
0.5974997352 0.1250250217 0.3724991459
0.5927613862 0.2498537525 0.2409579279
0.6174928844 0.1184837742 0.1226704737
0.6174997352 0.1250250215 0.3724991459
0.6127613863 0.2498537525 0.2409579279
0.6374928844 0.1184837742 0.1226704737
0.6374997352 0.1250250215 0.3724991459
0.6327613863 0.2498537525 0.2409579279
0.6574928844 0.1184837742 0.1226704737
0.6574997352 0.1250250215 0.3724991459
0.6527613863 0.2498537525 0.2409579279
0.6774928844 0.1184837742 0.1226704737
0.6774997352 0.1250250215 0.3724991459
0.6727613863 0.2498537525 0.2409579279
0.6974928844 0.1184837742 0.1226704737
0.6974997352 0.1250250215 0.3724991459
0.6927613863 0.2498537525 0.2409579279
0.7174928844 0.1184837742 0.1226704737
0.7174997352 0.1250250215 0.3724991459
0.7127613863 0.2498537525 0.2409579279
0.7374928844 0.1184837742 0.1226704737
0.7374997352 0.1250250215 0.3724991459
0.7327613863 0.2498537525 0.2409579279
0.7574928844 0.1184837742 0.1226704737
0.7574997352 0.1250250215 0.3724991459
0.7527613863 0.2498537525 0.2409579279
0.7774928844 0.1184837742 0.1226704737
0.7774997352 0.1250250215 0.3724991459
0.7727613863 0.2498537525 0.2409579279
0.7974928844 0.1184837742 0.1226704737
0.7974997352 0.1250250215 0.3724991459
0.7927613863 0.2498537525 0.2409579279
0.8174928844 0.1184837742 0.1226704737
0.8174997352 0.1250250215 0.3724991459
0.8127613863 0.2498537525 0.2409579279
0.8374928844 0.1184837742 0.1226704737
0.8374997352 0.1250250215 0.3724991459
0.8327613863 0.2498537525 0.2409579279
0.8574928844 0.1184837742 0.1226704737
0.8574997352 0.1250250215 0.3724991459
0.8527613863 0.2498537525 0.2409579279
0.8774928844 0.1184837742 0.1226704737
0.8774997352 0.1250250215 0.3724991459
0.8727613863 0.2498537525 0.2409579279
0.8974928844 0.1184837742 0.1226704737
0.8974997352 0.1250250215 0.3724991459
0.8927613863 0.2498537525 0.2409579279
0.9174928844 0.1184837752 0.1226704736
0.9174997352 0.1250250226 0.3724991459
0.9127613862 0.2498537525 0.2409579279
0.9374928846 0.1184838157 0.1226704726
0.9374997352 0.1250250631 0.3724991448
0.9327613849 0.2498537534 0.2409579279
0.9574928898 0.118485569 0.122670419
0.9574997368 0.1250265286 0.3724991065
0.9527613336 0.249853788 0.2409579681
0.9774931432 0.1186031915 0.1226645384
0.9774997459 0.1250353996 0.3724988813
0.9727593054 0.2498560292 0.240993104
0.9974979404 0.1210392333 0.1225814089
0.9975002636 0.1261955203 0.3724750236
0.9926897581 0.2499187899 0.2419741851
0.5074973156 0.130397005 0.3726696685
0.5075008884 0.1224675091 0.6224180023
0.5274930312 0.1315559424 0.3726730602
0.527499858 0.1249054058 0.6224959624
0.5222509421 0.249854216 0.5043298243
0.5474928895 0.131564764 0.3726704418
0.5474997371 0.125023224 0.6224990989
0.542238418 0.2498539212 0.5040422651
0.5674928846 0.1315662273 0.3726704726
0.5674997352 0.1250249799 0.6224991448
0.5622380948 0.2498537579 0.5040404232
0.5874928844 0.1315662678 0.3726704736
0.5874997352 0.1250250205 0.6224991459
0.5822380867 0.2498537526 0.5040404226
0.6074928844 0.1315662688 0.3726704737
0.6074997352 0.1250250215 0.6224991459
0.6022380865 0.2498537525 0.5040404226
0.6274928844 0.1315662689 0.3726704737
0.6274997352 0.1250250215 0.6224991459
0.6222380865 0.2498537525 0.5040404226
0.6474928844 0.1315662689 0.3726704737
0.6474997352 0.1250250215 0.6224991459
0.6422380865 0.2498537525 0.5040404226
0.6674928844 0.1315662689 0.3726704737
0.6674997352 0.1250250215 0.6224991459
0.6622380865 0.2498537525 0.5040404226
0.6874928844 0.1315662689 0.3726704737
0.6874997352 0.1250250215 0.6224991459
0.6822380865 0.2498537525 0.5040404226
0.7074928844 0.1315662689 0.3726704737
0.7074997352 0.1250250215 0.6224991459
0.7022380865 0.2498537525 0.5040404226
0.7274928844 0.1315662689 0.3726704737
0.7274997352 0.1250250215 0.6224991459
0.7222380865 0.2498537525 0.5040404226
0.7474928844 0.1315662689 0.3726704737
0.7474997352 0.1250250215 0.6224991459
0.7422380865 0.2498537525 0.5040404226
0.7674928844 0.1315662689 0.3726704737
0.7674997352 0.1250250215 0.6224991459
0.7622380865 0.2498537525 0.5040404226
0.7874928844 0.1315662689 0.3726704737
0.7874997352 0.1250250215 0.6224991459
0.7822380865 0.2498537525 0.5040404226
0.8074928844 0.1315662689 0.3726704737
0.8074997352 0.1250250215 0.6224991459
0.8022380865 0.2498537525 0.5040404226
0.8274928844 0.1315662689 0.3726704737
0.8274997352 0.1250250215 0.6224991459
0.8222380865 0.2498537525 0.5040404226
0.8474928844 0.1315662689 0.3726704737
0.8474997352 0.1250250215 0.6224991459
0.8422380865 0.2498537525 0.5040404226
0.8674928844 0.1315662689 0.3726704737
0.8674997352 0.1250250215 0.6224991459
0.8622380865 0.2498537525 0.5040404226
0.8874928844 0.1315662688 0.3726704737
0.8874997352 0.1250250215 0.6224991459
0.8822380865 0.2498537525 0.5040404226
0.9074928844 0.1315662687 0.3726704737
0.9074997352 0.1250250213 0.6224991459
0.9022380865 0.2498537525 0.5040404226
0.9274928845 0.1315662623 0.3726704735
0.9274997352 0.1250250149 0.6224991458
0.9222380867 0.2498537526 0.5040404226
0.9474928853 0.1315660049 0.3726704666
0.9474997355 0.1250247614 0.6224991391
0.9422380948 0.249853758 0.5040404224
0.9674929216 0.1315515921 0.3726698646
0.9674997416 0.1250189226 0.6224989868
0.9622384179 0.2498540133 0.5040387472
0.9874943321 0.1308808541 0.3726385842
0.9874998202 0.1249332626 0.6224969734
0.9822509273 0.2498690615 0.5037633704
0.5174937838 0.1185753272 0.6226834286
0.5175003686 0.1257113602 0.8724795452
0.5126897179 0.2498660052 0.739956008
0.5374929126 0.1184898604 0.6226705394
0.5374997505 0.1250397227 0.8724987607
0.5327593036 0.2498542445 0.7409249287
0.5574928853 0.1184840339 0.622670467
0.5574997355 0.1250252858 0.872499139
0.5527613336 0.249853786 0.7409578903
0.5774928845 0.1184837808 0.6226704735
0.5774997352 0.1250250281 0.8724991458
0.5727613849 0.2498537534 0.7409579279
0.5974928844 0.1184837743 0.6226704736
0.5974997352 0.1250250217 0.8724991459
0.5927613862 0.2498537525 0.7409579279
0.6174928844 0.1184837742 0.6226704737
0.6174997352 0.1250250215 0.8724991459
0.6127613863 0.2498537525 0.7409579279
0.6374928844 0.1184837742 0.6226704737
0.6374997352 0.1250250215 0.8724991459
0.6327613863 0.2498537525 0.7409579279
0.6574928844 0.1184837742 0.6226704737
0.6574997352 0.1250250215 0.8724991459
0.6527613863 0.2498537525 0.7409579279
0.6774928844 0.1184837742 0.6226704737
0.6774997352 0.1250250215 0.8724991459
0.6727613863 0.2498537525 0.7409579279
0.6974928844 0.1184837742 0.6226704737
0.6974997352 0.1250250215 0.8724991459
0.6927613863 0.2498537525 0.7409579279
0.7174928844 0.1184837742 0.6226704737
0.7174997352 0.1250250215 0.8724991459
0.7127613863 0.2498537525 0.7409579279
0.7374928844 0.1184837742 0.6226704737
0.7374997352 0.1250250215 0.8724991459
0.7327613863 0.2498537525 0.7409579279
0.7574928844 0.1184837742 0.6226704737
0.7574997352 0.1250250215 0.8724991459
0.7527613863 0.2498537525 0.7409579279
0.7774928844 0.1184837742 0.6226704737
0.7774997352 0.1250250215 0.8724991459
0.7727613863 0.2498537525 0.7409579279
0.7974928844 0.1184837742 0.6226704737
0.7974997352 0.1250250215 0.8724991459
0.7927613863 0.2498537525 0.7409579279
0.8174928844 0.1184837742 0.6226704737
0.8174997352 0.1250250215 0.8724991459
0.8127613863 0.2498537525 0.7409579279
0.8374928844 0.1184837742 0.6226704737
0.8374997352 0.1250250215 0.8724991459
0.8327613863 0.2498537525 0.7409579279
0.8574928844 0.1184837742 0.6226704737
0.8574997352 0.1250250215 0.8724991459
0.8527613863 0.2498537525 0.7409579279
0.8774928844 0.1184837742 0.6226704737
0.8774997352 0.1250250215 0.8724991459
0.8727613863 0.2498537525 0.7409579279
0.8974928844 0.1184837742 0.6226704737
0.8974997352 0.1250250215 0.8724991459
0.8927613863 0.2498537525 0.7409579279
0.9174928844 0.1184837752 0.6226704736
0.9174997352 0.1250250226 0.8724991459
0.9127613862 0.2498537525 0.7409579279
0.9374928846 0.1184838157 0.6226704726
0.9374997352 0.1250250631 0.8724991448
0.9327613849 0.2498537534 0.7409579279
0.9574928898 0.118485569 0.622670419
0.9574997368 0.1250265286 0.8724991065
0.9527613336 0.249853788 0.7409579681
0.9774931432 0.1186031915 0.6226645384
0.9774997459 0.1250353996 0.8724988813
0.9727593054 0.2498560292 0.740993104
0.9974979404 0.1210392333 0.6225814089
0.9975002636 0.1261955203 0.8724750236
0.9926897581 0.2499187899 0.7419741851
0.5074973156 0.130397005 0.8726696685
0.5274930312 0.1315559424 0.8726730602
0.5474928895 0.131564764 0.8726704418
0.5674928846 0.1315662273 0.8726704726
0.5874928844 0.1315662678 0.8726704736
0.6074928844 0.1315662688 0.8726704737
0.6274928844 0.1315662689 0.8726704737
0.6474928844 0.1315662689 0.8726704737
0.6674928844 0.1315662689 0.8726704737
0.6874928844 0.1315662689 0.8726704737
0.7074928844 0.1315662689 0.8726704737
0.7274928844 0.1315662689 0.8726704737
0.7474928844 0.1315662689 0.8726704737
0.7674928844 0.1315662689 0.8726704737
0.7874928844 0.1315662689 0.8726704737
0.8074928844 0.1315662689 0.8726704737
0.8274928844 0.1315662689 0.8726704737
0.8474928844 0.1315662689 0.8726704737
0.8674928844 0.1315662689 0.8726704737
0.8874928844 0.1315662688 0.8726704737
0.9074928844 0.1315662687 0.8726704737
0.9274928845 0.1315662623 0.8726704735
0.9474928853 0.1315660049 0.8726704666
0.9674929216 0.1315515921 0.8726698646
0.9874943321 0.1308808541 0.8726385842
0.5075008884 0.3775825339 0.1224180023
0.527499858 0.3751446372 0.1224959624
0.5474997371 0.375026819 0.1224990989
0.5674997352 0.3750250631 0.1224991448
0.5874997352 0.3750250226 0.1224991459
0.6074997352 0.3750250215 0.1224991459
0.6274997352 0.3750250215 0.1224991459
0.6474997352 0.3750250215 0.1224991459
0.6674997352 0.3750250215 0.1224991459
0.6874997352 0.3750250215 0.1224991459
0.7074997352 0.3750250215 0.1224991459
0.7274997352 0.3750250215 0.1224991459
0.7474997352 0.3750250215 0.1224991459
0.7674997352 0.3750250215 0.1224991459
0.7874997352 0.3750250215 0.1224991459
0.8074997352 0.3750250215 0.1224991459
0.8274997352 0.3750250215 0.1224991459
0.8474997352 0.3750250215 0.1224991459
0.8674997352 0.3750250215 0.1224991459
0.8874997352 0.3750250215 0.1224991459
0.9074997352 0.3750250217 0.1224991459
0.9274997352 0.3750250281 0.1224991458
0.9474997355 0.3750252816 0.1224991391
0.9674997416 0.3750311204 0.1224989868
0.9874998202 0.3751167804 0.1224969734
0.5174937838 0.3814747158 0.1226834286
0.5175003686 0.3743386828 0.3724795452
0.5123097549 0.4998655141 0.2550585827
0.5374929126 0.3815601826 0.1226705394
0.5374997505 0.3750103204 0.3724987607
0.5322401692 0.4998541853 0.2540756695
0.5574928853 0.3815660091 0.122670467
0.5574997355 0.3750247572 0.372499139
0.5522381391 0.4998537859 0.2540404646
0.5774928845 0.3815662623 0.1226704735
0.5774997352 0.3750250149 0.3724991458
0.5722380878 0.4998537534 0.2540404226
0.5974928844 0.3815662687 0.1226704737
0.5974997352 0.3750250213 0.3724991459
0.5922380865 0.4998537525 0.2540404226
0.6174928844 0.3815662688 0.1226704737
0.6174997352 0.3750250215 0.3724991459
0.6122380865 0.4998537525 0.2540404226
0.6374928844 0.3815662689 0.1226704737
0.6374997352 0.3750250215 0.3724991459
0.6322380865 0.4998537525 0.2540404226
0.6574928844 0.3815662689 0.1226704737
0.6574997352 0.3750250215 0.3724991459
0.6522380865 0.4998537525 0.2540404226
0.6774928844 0.3815662689 0.1226704737
0.6774997352 0.3750250215 0.3724991459
0.6722380865 0.4998537525 0.2540404226
0.6974928844 0.3815662689 0.1226704737
0.6974997352 0.3750250215 0.3724991459
0.6922380865 0.4998537525 0.2540404226
0.7174928844 0.3815662689 0.1226704737
0.7174997352 0.3750250215 0.3724991459
0.7122380865 0.4998537525 0.2540404226
0.7374928844 0.3815662689 0.1226704737
0.7374997352 0.3750250215 0.3724991459
0.7322380865 0.4998537525 0.2540404226
0.7574928844 0.3815662689 0.1226704737
0.7574997352 0.3750250215 0.3724991459
0.7522380865 0.4998537525 0.2540404226
0.7774928844 0.3815662689 0.1226704737
0.7774997352 0.3750250215 0.3724991459
0.7722380865 0.4998537525 0.2540404226
0.7974928844 0.3815662689 0.1226704737
0.7974997352 0.3750250215 0.3724991459
0.7922380865 0.4998537525 0.2540404226
0.8174928844 0.3815662689 0.1226704737
0.8174997352 0.3750250215 0.3724991459
0.8122380865 0.4998537525 0.2540404226
0.8374928844 0.3815662689 0.1226704737
0.8374997352 0.3750250215 0.3724991459
0.8322380865 0.4998537525 0.2540404226
0.8574928844 0.3815662689 0.1226704737
0.8574997352 0.3750250215 0.3724991459
0.8522380865 0.4998537525 0.2540404226
0.8774928844 0.3815662689 0.1226704737
0.8774997352 0.3750250215 0.3724991459
0.8722380865 0.4998537525 0.2540404226
0.8974928844 0.3815662688 0.1226704737
0.8974997352 0.3750250215 0.3724991459
0.8922380865 0.4998537525 0.2540404226
0.9174928844 0.3815662678 0.1226704736
0.9174997352 0.3750250205 0.3724991459
0.9122380865 0.4998537525 0.2540404226
0.9374928846 0.3815662273 0.1226704726
0.9374997352 0.3750249799 0.3724991448
0.9322380878 0.4998537534 0.2540404226
0.9574928898 0.381564474 0.122670419
0.9574997368 0.3750235144 0.3724991065
0.9522381391 0.4998537879 0.2540403868
0.9774931432 0.3814468515 0.1226645384
0.9774997459 0.3750146434 0.3724988813
0.9722401673 0.4998559706 0.2540074942
0.9974979404 0.3790108097 0.1225814089
0.9975002636 0.3738545227 0.3724750236
0.9923097147 0.49991843 0.2530404125
0.5074973156 0.369653038 0.3726696685
0.5075008884 0.3775825339 0.6224180023
0.5274930312 0.3684941006 0.3726730602
0.527499858 0.3751446372 0.6224959624
0.5227485307 0.4998545422 0.4906804622
0.5474928895 0.368485279 0.3726704418
0.5474997371 0.375026819 0.6224990989
0.5427610548 0.4998539253 0.4909562411
0.5674928846 0.3684838157 0.3726704726
0.5674997352 0.3750250631 0.6224991448
0.5627613779 0.4998537579 0.4909579274
0.5874928844 0.3684837752 0.3726704736
0.5874997352 0.3750250226 0.6224991459
0.5827613861 0.4998537526 0.4909579279
0.6074928844 0.3684837742 0.3726704737
0.6074997352 0.3750250215 0.6224991459
0.6027613863 0.4998537525 0.4909579279
0.6274928844 0.3684837742 0.3726704737
0.6274997352 0.3750250215 0.6224991459
0.6227613863 0.4998537525 0.4909579279
0.6474928844 0.3684837742 0.3726704737
0.6474997352 0.3750250215 0.6224991459
0.6427613863 0.4998537525 0.4909579279
0.6674928844 0.3684837742 0.3726704737
0.6674997352 0.3750250215 0.6224991459
0.6627613863 0.4998537525 0.4909579279
0.6874928844 0.3684837742 0.3726704737
0.6874997352 0.3750250215 0.6224991459
0.6827613863 0.4998537525 0.4909579279
0.7074928844 0.3684837742 0.3726704737
0.7074997352 0.3750250215 0.6224991459
0.7027613863 0.4998537525 0.4909579279
0.7274928844 0.3684837742 0.3726704737
0.7274997352 0.3750250215 0.6224991459
0.7227613863 0.4998537525 0.4909579279
0.7474928844 0.3684837742 0.3726704737
0.7474997352 0.3750250215 0.6224991459
0.7427613863 0.4998537525 0.4909579279
0.7674928844 0.3684837742 0.3726704737
0.7674997352 0.3750250215 0.6224991459
0.7627613863 0.4998537525 0.4909579279
0.7874928844 0.3684837742 0.3726704737
0.7874997352 0.3750250215 0.6224991459
0.7827613863 0.4998537525 0.4909579279
0.8074928844 0.3684837742 0.3726704737
0.8074997352 0.3750250215 0.6224991459
0.8027613863 0.4998537525 0.4909579279
0.8274928844 0.3684837742 0.3726704737
0.8274997352 0.3750250215 0.6224991459
0.8227613863 0.4998537525 0.4909579279
0.8474928844 0.3684837742 0.3726704737
0.8474997352 0.3750250215 0.6224991459
0.8427613863 0.4998537525 0.4909579279
0.8674928844 0.3684837742 0.3726704737
0.8674997352 0.3750250215 0.6224991459
0.8627613863 0.4998537525 0.4909579279
0.8874928844 0.3684837742 0.3726704737
0.8874997352 0.3750250215 0.6224991459
0.8827613863 0.4998537525 0.4909579279
0.9074928844 0.3684837743 0.3726704737
0.9074997352 0.3750250217 0.6224991459
0.9027613863 0.4998537525 0.4909579279
0.9274928845 0.3684837808 0.3726704735
0.9274997352 0.3750250281 0.6224991458
0.9227613861 0.4998537526 0.4909579279
0.9474928853 0.3684840381 0.3726704666
0.9474997355 0.3750252816 0.6224991391
0.9427613779 0.499853758 0.4909579282
0.9674929216 0.3684984509 0.3726698646
0.9674997416 0.3750311204 0.6224989868
0.9627610549 0.4998540174 0.490959759
0.9874943321 0.3691691889 0.3726385842
0.9874998202 0.3751167804 0.6224969734
0.9827485454 0.4998693606 0.4912469174
0.5174937838 0.3814747158 0.6226834286
0.5175003686 0.3743386828 0.8724795452
0.5123097549 0.4998655141 0.7550585827
0.5374929126 0.3815601826 0.6226705394
0.5374997505 0.3750103204 0.8724987607
0.5322401692 0.4998541853 0.7540756695
0.5574928853 0.3815660091 0.622670467
0.5574997355 0.3750247572 0.872499139
0.5522381391 0.4998537859 0.7540404646
0.5774928845 0.3815662623 0.6226704735
0.5774997352 0.3750250149 0.8724991458
0.5722380878 0.4998537534 0.7540404227
0.5974928844 0.3815662687 0.6226704736
0.5974997352 0.3750250213 0.8724991459
0.5922380865 0.4998537525 0.7540404226
0.6174928844 0.3815662688 0.6226704737
0.6174997352 0.3750250215 0.8724991459
0.6122380865 0.4998537525 0.7540404226
0.6374928844 0.3815662689 0.6226704737
0.6374997352 0.3750250215 0.8724991459
0.6322380865 0.4998537525 0.7540404226
0.6574928844 0.3815662689 0.6226704737
0.6574997352 0.3750250215 0.8724991459
0.6522380865 0.4998537525 0.7540404226
0.6774928844 0.3815662689 0.6226704737
0.6774997352 0.3750250215 0.8724991459
0.6722380865 0.4998537525 0.7540404226
0.6974928844 0.3815662689 0.6226704737
0.6974997352 0.3750250215 0.8724991459
0.6922380865 0.4998537525 0.7540404226
0.7174928844 0.3815662689 0.6226704737
0.7174997352 0.3750250215 0.8724991459
0.7122380865 0.4998537525 0.7540404226
0.7374928844 0.3815662689 0.6226704737
0.7374997352 0.3750250215 0.8724991459
0.7322380865 0.4998537525 0.7540404226
0.7574928844 0.3815662689 0.6226704737
0.7574997352 0.3750250215 0.8724991459
0.7522380865 0.4998537525 0.7540404226
0.7774928844 0.3815662689 0.6226704737
0.7774997352 0.3750250215 0.8724991459
0.7722380865 0.4998537525 0.7540404226
0.7974928844 0.3815662689 0.6226704737
0.7974997352 0.3750250215 0.8724991459
0.7922380865 0.4998537525 0.7540404226
0.8174928844 0.3815662689 0.6226704737
0.8174997352 0.3750250215 0.8724991459
0.8122380865 0.4998537525 0.7540404226
0.8374928844 0.3815662689 0.6226704737
0.8374997352 0.3750250215 0.8724991459
0.8322380865 0.4998537525 0.7540404226
0.8574928844 0.3815662689 0.6226704737
0.8574997352 0.3750250215 0.8724991459
0.8522380865 0.4998537525 0.7540404226
0.8774928844 0.3815662689 0.6226704737
0.8774997352 0.3750250215 0.8724991459
0.8722380865 0.4998537525 0.7540404226
0.8974928844 0.3815662688 0.6226704737
0.8974997352 0.3750250215 0.8724991459
0.8922380865 0.4998537525 0.7540404226
0.9174928844 0.3815662678 0.6226704736
0.9174997352 0.3750250205 0.8724991459
0.9122380865 0.4998537525 0.7540404226
0.9374928846 0.3815662273 0.6226704726
0.9374997352 0.3750249799 0.8724991448
0.9322380878 0.4998537534 0.7540404227
0.9574928898 0.381564474 0.622670419
0.9574997368 0.3750235144 0.8724991065
0.9522381391 0.4998537879 0.7540403868
0.9774931432 0.3814468515 0.6226645384
0.9774997459 0.3750146434 0.8724988813
0.9722401673 0.4998559706 0.7540074942
0.9974979404 0.3790108097 0.6225814089
0.9975002636 0.3738545227 0.8724750236
0.9923097147 0.49991843 0.7530404125
0.5074973156 0.369653038 0.8726696685
0.5274930312 0.3684941006 0.8726730602
0.5227485307 0.4998545422 0.9906804622
0.5474928895 0.368485279 0.8726704418
0.5427610548 0.4998539253 0.9909562411
0.5674928846 0.3684838157 0.8726704726
0.5627613779 0.4998537579 0.9909579274
0.5874928844 0.3684837752 0.8726704736
0.5827613861 0.4998537526 0.9909579279
0.6074928844 0.3684837742 0.8726704737
0.6027613863 0.4998537525 0.9909579279
0.6274928844 0.3684837742 0.8726704737
0.6227613863 0.4998537525 0.9909579279
0.6474928844 0.3684837742 0.8726704737
0.6427613863 0.4998537525 0.9909579279
0.6674928844 0.3684837742 0.8726704737
0.6627613863 0.4998537525 0.9909579279
0.6874928844 0.3684837742 0.8726704737
0.6827613863 0.4998537525 0.9909579279
0.7074928844 0.3684837742 0.8726704737
0.7027613863 0.4998537525 0.9909579279
0.7274928844 0.3684837742 0.8726704737
0.7227613863 0.4998537525 0.9909579279
0.7474928844 0.3684837742 0.8726704737
0.7427613863 0.4998537525 0.9909579279
0.7674928844 0.3684837742 0.8726704737
0.7627613863 0.4998537525 0.9909579279
0.7874928844 0.3684837742 0.8726704737
0.7827613863 0.4998537525 0.9909579279
0.8074928844 0.3684837742 0.8726704737
0.8027613863 0.4998537525 0.9909579279
0.8274928844 0.3684837742 0.8726704737
0.8227613863 0.4998537525 0.9909579279
0.8474928844 0.3684837742 0.8726704737
0.8427613863 0.4998537525 0.9909579279
0.8674928844 0.3684837742 0.8726704737
0.8627613863 0.4998537525 0.9909579279
0.8874928844 0.3684837742 0.8726704737
0.8827613863 0.4998537525 0.9909579279
0.9074928844 0.3684837743 0.8726704737
0.9027613863 0.4998537525 0.9909579279
0.9274928845 0.3684837808 0.8726704735
0.9227613861 0.4998537526 0.9909579279
0.9474928853 0.3684840381 0.8726704666
0.9427613779 0.499853758 0.9909579282
0.9674929216 0.3684984509 0.8726698646
0.9627610549 0.4998540174 0.990959759
0.9874943321 0.3691691889 0.8726385842
0.9827485454 0.4998693606 0.9912469174
0.5075008884 0.6224675091 0.1224180023
0.527499858 0.6249054058 0.1224959624
0.5222509421 0.749854216 0.0043298243
0.5474997371 0.625023224 0.1224990989
0.542238418 0.7498539212 0.0040422651
0.5674997352 0.6250249799 0.1224991448
0.5622380948 0.7498537579 0.0040404232
0.5874997352 0.6250250205 0.1224991459
0.5822380867 0.7498537526 0.0040404226
0.6074997352 0.6250250215 0.1224991459
0.6022380865 0.7498537525 0.0040404226
0.6274997352 0.6250250215 0.1224991459
0.6222380865 0.7498537525 0.0040404226
0.6474997352 0.6250250215 0.1224991459
0.6422380865 0.7498537525 0.0040404226
0.6674997352 0.6250250215 0.1224991459
0.6622380865 0.7498537525 0.0040404226
0.6874997352 0.6250250215 0.1224991459
0.6822380865 0.7498537525 0.0040404226
0.7074997352 0.6250250215 0.1224991459
0.7022380865 0.7498537525 0.0040404226
0.7274997352 0.6250250215 0.1224991459
0.7222380865 0.7498537525 0.0040404226
0.7474997352 0.6250250215 0.1224991459
0.7422380865 0.7498537525 0.0040404226
0.7674997352 0.6250250215 0.1224991459
0.7622380865 0.7498537525 0.0040404226
0.7874997352 0.6250250215 0.1224991459
0.7822380865 0.7498537525 0.0040404226
0.8074997352 0.6250250215 0.1224991459
0.8022380865 0.7498537525 0.0040404226
0.8274997352 0.6250250215 0.1224991459
0.8222380865 0.7498537525 0.0040404226
0.8474997352 0.6250250215 0.1224991459
0.8422380865 0.7498537525 0.0040404226
0.8674997352 0.6250250215 0.1224991459
0.8622380865 0.7498537525 0.0040404226
0.8874997352 0.6250250215 0.1224991459
0.8822380865 0.7498537525 0.0040404226
0.9074997352 0.6250250213 0.1224991459
0.9022380865 0.7498537525 0.0040404226
0.9274997352 0.6250250149 0.1224991458
0.9222380867 0.7498537526 0.0040404226
0.9474997355 0.6250247614 0.1224991391
0.9422380948 0.749853758 0.0040404224
0.9674997416 0.6250189226 0.1224989868
0.9622384179 0.7498540133 0.0040387472
0.9874998202 0.6249332626 0.1224969734
0.9822509273 0.7498690615 0.0037633704
0.5174937838 0.6185753272 0.1226834286
0.5175003686 0.6257113602 0.3724795452
0.5126897179 0.7498660052 0.239956008
0.5374929126 0.6184898604 0.1226705394
0.5374997505 0.6250397227 0.3724987607
0.5327593036 0.7498542445 0.2409249287
0.5574928853 0.6184840339 0.122670467
0.5574997355 0.6250252858 0.372499139
0.5527613336 0.749853786 0.2409578903
0.5774928845 0.6184837808 0.1226704735
0.5774997352 0.6250250281 0.3724991458
0.5727613849 0.7498537534 0.2409579279
0.5974928844 0.6184837743 0.1226704737
0.5974997352 0.6250250217 0.3724991459
0.5927613862 0.7498537525 0.2409579279
0.6174928844 0.6184837742 0.1226704737
0.6174997352 0.6250250215 0.3724991459
0.6127613863 0.7498537525 0.2409579279
0.6374928844 0.6184837742 0.1226704737
0.6374997352 0.6250250215 0.3724991459
0.6327613863 0.7498537525 0.2409579279
0.6574928844 0.6184837742 0.1226704737
0.6574997352 0.6250250215 0.3724991459
0.6527613863 0.7498537525 0.2409579279
0.6774928844 0.6184837742 0.1226704737
0.6774997352 0.6250250215 0.3724991459
0.6727613863 0.7498537525 0.2409579279
0.6974928844 0.6184837742 0.1226704737
0.6974997352 0.6250250215 0.3724991459
0.6927613863 0.7498537525 0.2409579279
0.7174928844 0.6184837742 0.1226704737
0.7174997352 0.6250250215 0.3724991459
0.7127613863 0.7498537525 0.2409579279
0.7374928844 0.6184837742 0.1226704737
0.7374997352 0.6250250215 0.3724991459
0.7327613863 0.7498537525 0.2409579279
0.7574928844 0.6184837742 0.1226704737
0.7574997352 0.6250250215 0.3724991459
0.7527613863 0.7498537525 0.2409579279
0.7774928844 0.6184837742 0.1226704737
0.7774997352 0.6250250215 0.3724991459
0.7727613863 0.7498537525 0.2409579279
0.7974928844 0.6184837742 0.1226704737
0.7974997352 0.6250250215 0.3724991459
0.7927613863 0.7498537525 0.2409579279
0.8174928844 0.6184837742 0.1226704737
0.8174997352 0.6250250215 0.3724991459
0.8127613863 0.7498537525 0.2409579279
0.8374928844 0.6184837742 0.1226704737
0.8374997352 0.6250250215 0.3724991459
0.8327613863 0.7498537525 0.2409579279
0.8574928844 0.6184837742 0.1226704737
0.8574997352 0.6250250215 0.3724991459
0.8527613863 0.7498537525 0.2409579279
0.8774928844 0.6184837742 0.1226704737
0.8774997352 0.6250250215 0.3724991459
0.8727613863 0.7498537525 0.2409579279
0.8974928844 0.6184837742 0.1226704737
0.8974997352 0.6250250215 0.3724991459
0.8927613863 0.7498537525 0.2409579279
0.9174928844 0.6184837752 0.1226704736
0.9174997352 0.6250250226 0.3724991459
0.9127613862 0.7498537525 0.2409579279
0.9374928846 0.6184838157 0.1226704726
0.9374997352 0.6250250631 0.3724991448
0.9327613849 0.7498537534 0.2409579279
0.9574928898 0.618485569 0.122670419
0.9574997368 0.6250265286 0.3724991065
0.9527613336 0.749853788 0.2409579681
0.9774931432 0.6186031915 0.1226645384
0.9774997459 0.6250353996 0.3724988813
0.9727593054 0.7498560292 0.240993104
0.9974979404 0.6210392333 0.1225814089
0.9975002636 0.6261955203 0.3724750236
0.9926897581 0.7499187899 0.2419741851
0.5074973156 0.630397005 0.3726696685
0.5075008884 0.6224675091 0.6224180023
0.5274930312 0.6315559424 0.3726730602
0.527499858 0.6249054058 0.6224959624
0.5222509421 0.749854216 0.5043298243
0.5474928895 0.631564764 0.3726704418
0.5474997371 0.625023224 0.6224990989
0.542238418 0.7498539212 0.5040422651
0.5674928846 0.6315662273 0.3726704726
0.5674997352 0.6250249799 0.6224991448
0.5622380948 0.7498537579 0.5040404232
0.5874928844 0.6315662678 0.3726704736
0.5874997352 0.6250250205 0.6224991459
0.5822380867 0.7498537526 0.5040404226
0.6074928844 0.6315662688 0.3726704737
0.6074997352 0.6250250215 0.6224991459
0.6022380865 0.7498537525 0.5040404226
0.6274928844 0.6315662689 0.3726704737
0.6274997352 0.6250250215 0.6224991459
0.6222380865 0.7498537525 0.5040404226
0.6474928844 0.6315662689 0.3726704737
0.6474997352 0.6250250215 0.6224991459
0.6422380865 0.7498537525 0.5040404226
0.6674928844 0.6315662689 0.3726704737
0.6674997352 0.6250250215 0.6224991459
0.6622380865 0.7498537525 0.5040404226
0.6874928844 0.6315662689 0.3726704737
0.6874997352 0.6250250215 0.6224991459
0.6822380865 0.7498537525 0.5040404226
0.7074928844 0.6315662689 0.3726704737
0.7074997352 0.6250250215 0.6224991459
0.7022380865 0.7498537525 0.5040404226
0.7274928844 0.6315662689 0.3726704737
0.7274997352 0.6250250215 0.6224991459
0.7222380865 0.7498537525 0.5040404226
0.7474928844 0.6315662689 0.3726704737
0.7474997352 0.6250250215 0.6224991459
0.7422380865 0.7498537525 0.5040404226
0.7674928844 0.6315662689 0.3726704737
0.7674997352 0.6250250215 0.6224991459
0.7622380865 0.7498537525 0.5040404226
0.7874928844 0.6315662689 0.3726704737
0.7874997352 0.6250250215 0.6224991459
0.7822380865 0.7498537525 0.5040404226
0.8074928844 0.6315662689 0.3726704737
0.8074997352 0.6250250215 0.6224991459
0.8022380865 0.7498537525 0.5040404226
0.8274928844 0.6315662689 0.3726704737
0.8274997352 0.6250250215 0.6224991459
0.8222380865 0.7498537525 0.5040404226
0.8474928844 0.6315662689 0.3726704737
0.8474997352 0.6250250215 0.6224991459
0.8422380865 0.7498537525 0.5040404226
0.8674928844 0.6315662689 0.3726704737
0.8674997352 0.6250250215 0.6224991459
0.8622380865 0.7498537525 0.5040404226
0.8874928844 0.6315662688 0.3726704737
0.8874997352 0.6250250215 0.6224991459
0.8822380865 0.7498537525 0.5040404226
0.9074928844 0.6315662687 0.3726704737
0.9074997352 0.6250250213 0.6224991459
0.9022380865 0.7498537525 0.5040404226
0.9274928845 0.6315662623 0.3726704735
0.9274997352 0.6250250149 0.6224991458
0.9222380867 0.7498537526 0.5040404226
0.9474928853 0.6315660049 0.3726704666
0.9474997355 0.6250247614 0.6224991391
0.9422380948 0.749853758 0.5040404224
0.9674929216 0.6315515921 0.3726698646
0.9674997416 0.6250189226 0.6224989868
0.9622384179 0.7498540133 0.5040387472
0.9874943321 0.6308808541 0.3726385842
0.9874998202 0.6249332626 0.6224969734
0.9822509273 0.7498690615 0.5037633704
0.5174937838 0.6185753272 0.6226834286
0.5175003686 0.6257113602 0.8724795452
0.5126897179 0.7498660052 0.739956008
0.5374929126 0.6184898604 0.6226705394
0.5374997505 0.6250397227 0.8724987607
0.5327593036 0.7498542445 0.7409249287
0.5574928853 0.6184840339 0.622670467
0.5574997355 0.6250252858 0.872499139
0.5527613336 0.749853786 0.7409578903
0.5774928845 0.6184837808 0.6226704735
0.5774997352 0.6250250281 0.8724991458
0.5727613849 0.7498537534 0.7409579279
0.5974928844 0.6184837743 0.6226704736
0.5974997352 0.6250250217 0.8724991459
0.5927613862 0.7498537525 0.7409579279
0.6174928844 0.6184837742 0.6226704737
0.6174997352 0.6250250215 0.8724991459
0.6127613863 0.7498537525 0.7409579279
0.6374928844 0.6184837742 0.6226704737
0.6374997352 0.6250250215 0.8724991459
0.6327613863 0.7498537525 0.7409579279
0.6574928844 0.6184837742 0.6226704737
0.6574997352 0.6250250215 0.8724991459
0.6527613863 0.7498537525 0.7409579279
0.6774928844 0.6184837742 0.6226704737
0.6774997352 0.6250250215 0.8724991459
0.6727613863 0.7498537525 0.7409579279
0.6974928844 0.6184837742 0.6226704737
0.6974997352 0.6250250215 0.8724991459
0.6927613863 0.7498537525 0.7409579279
0.7174928844 0.6184837742 0.6226704737
0.7174997352 0.6250250215 0.8724991459
0.7127613863 0.7498537525 0.7409579279
0.7374928844 0.6184837742 0.6226704737
0.7374997352 0.6250250215 0.8724991459
0.7327613863 0.7498537525 0.7409579279
0.7574928844 0.6184837742 0.6226704737
0.7574997352 0.6250250215 0.8724991459
0.7527613863 0.7498537525 0.7409579279
0.7774928844 0.6184837742 0.6226704737
0.7774997352 0.6250250215 0.8724991459
0.7727613863 0.7498537525 0.7409579279
0.7974928844 0.6184837742 0.6226704737
0.7974997352 0.6250250215 0.8724991459
0.7927613863 0.7498537525 0.7409579279
0.8174928844 0.6184837742 0.6226704737
0.8174997352 0.6250250215 0.8724991459
0.8127613863 0.7498537525 0.7409579279
0.8374928844 0.6184837742 0.6226704737
0.8374997352 0.6250250215 0.8724991459
0.8327613863 0.7498537525 0.7409579279
0.8574928844 0.6184837742 0.6226704737
0.8574997352 0.6250250215 0.8724991459
0.8527613863 0.7498537525 0.7409579279
0.8774928844 0.6184837742 0.6226704737
0.8774997352 0.6250250215 0.8724991459
0.8727613863 0.7498537525 0.7409579279
0.8974928844 0.6184837742 0.6226704737
0.8974997352 0.6250250215 0.8724991459
0.8927613863 0.7498537525 0.7409579279
0.9174928844 0.6184837752 0.6226704736
0.9174997352 0.6250250226 0.8724991459
0.9127613862 0.7498537525 0.7409579279
0.9374928846 0.6184838157 0.6226704726
0.9374997352 0.6250250631 0.8724991448
0.9327613849 0.7498537534 0.7409579279
0.9574928898 0.618485569 0.622670419
0.9574997368 0.6250265286 0.8724991065
0.9527613336 0.749853788 0.7409579681
0.9774931432 0.6186031915 0.6226645384
0.9774997459 0.6250353996 0.8724988813
0.9727593054 0.7498560292 0.740993104
0.9974979404 0.6210392333 0.6225814089
0.9975002636 0.6261955203 0.8724750236
0.9926897581 0.7499187899 0.7419741851
0.5074973156 0.630397005 0.8726696685
0.5274930312 0.6315559424 0.8726730602
0.5474928895 0.631564764 0.8726704418
0.5674928846 0.6315662273 0.8726704726
0.5874928844 0.6315662678 0.8726704736
0.6074928844 0.6315662688 0.8726704737
0.6274928844 0.6315662689 0.8726704737
0.6474928844 0.6315662689 0.8726704737
0.6674928844 0.6315662689 0.8726704737
0.6874928844 0.6315662689 0.8726704737
0.7074928844 0.6315662689 0.8726704737
0.7274928844 0.6315662689 0.8726704737
0.7474928844 0.6315662689 0.8726704737
0.7674928844 0.6315662689 0.8726704737
0.7874928844 0.6315662689 0.8726704737
0.8074928844 0.6315662689 0.8726704737
0.8274928844 0.6315662689 0.8726704737
0.8474928844 0.6315662689 0.8726704737
0.8674928844 0.6315662689 0.8726704737
0.8874928844 0.6315662688 0.8726704737
0.9074928844 0.6315662687 0.8726704737
0.9274928845 0.6315662623 0.8726704735
0.9474928853 0.6315660049 0.8726704666
0.9674929216 0.6315515921 0.8726698646
0.9874943321 0.6308808541 0.8726385842
0.5075008884 0.8775825339 0.1224180023
0.527499858 0.8751446372 0.1224959624
0.5474997371 0.875026819 0.1224990989
0.5674997352 0.8750250631 0.1224991448
0.5874997352 0.8750250226 0.1224991459
0.6074997352 0.8750250215 0.1224991459
0.6274997352 0.8750250215 0.1224991459
0.6474997352 0.8750250215 0.1224991459
0.6674997352 0.8750250215 0.1224991459
0.6874997352 0.8750250215 0.1224991459
0.7074997352 0.8750250215 0.1224991459
0.7274997352 0.8750250215 0.1224991459
0.7474997352 0.8750250215 0.1224991459
0.7674997352 0.8750250215 0.1224991459
0.7874997352 0.8750250215 0.1224991459
0.8074997352 0.8750250215 0.1224991459
0.8274997352 0.8750250215 0.1224991459
0.8474997352 0.8750250215 0.1224991459
0.8674997352 0.8750250215 0.1224991459
0.8874997352 0.8750250215 0.1224991459
0.9074997352 0.8750250217 0.1224991459
0.9274997352 0.8750250281 0.1224991458
0.9474997355 0.8750252816 0.1224991391
0.9674997416 0.8750311204 0.1224989868
0.9874998202 0.8751167804 0.1224969734
0.5174937838 0.8814747158 0.1226834286
0.5175003686 0.8743386828 0.3724795452
0.5123097549 0.9998655141 0.2550585827
0.5374929126 0.8815601826 0.1226705394
0.5374997505 0.8750103204 0.3724987607
0.5322401692 0.9998541853 0.2540756695
0.5574928853 0.8815660091 0.122670467
0.5574997355 0.8750247572 0.372499139
0.5522381391 0.9998537859 0.2540404646
0.5774928845 0.8815662623 0.1226704735
0.5774997352 0.8750250149 0.3724991458
0.5722380878 0.9998537534 0.2540404226
0.5974928844 0.8815662687 0.1226704737
0.5974997352 0.8750250213 0.3724991459
0.5922380865 0.9998537525 0.2540404226
0.6174928844 0.8815662688 0.1226704737
0.6174997352 0.8750250215 0.3724991459
0.6122380865 0.9998537525 0.2540404226
0.6374928844 0.8815662689 0.1226704737
0.6374997352 0.8750250215 0.3724991459
0.6322380865 0.9998537525 0.2540404226
0.6574928844 0.8815662689 0.1226704737
0.6574997352 0.8750250215 0.3724991459
0.6522380865 0.9998537525 0.2540404226
0.6774928844 0.8815662689 0.1226704737
0.6774997352 0.8750250215 0.3724991459
0.6722380865 0.9998537525 0.2540404226
0.6974928844 0.8815662689 0.1226704737
0.6974997352 0.8750250215 0.3724991459
0.6922380865 0.9998537525 0.2540404226
0.7174928844 0.8815662689 0.1226704737
0.7174997352 0.8750250215 0.3724991459
0.7122380865 0.9998537525 0.2540404226
0.7374928844 0.8815662689 0.1226704737
0.7374997352 0.8750250215 0.3724991459
0.7322380865 0.9998537525 0.2540404226
0.7574928844 0.8815662689 0.1226704737
0.7574997352 0.8750250215 0.3724991459
0.7522380865 0.9998537525 0.2540404226
0.7774928844 0.8815662689 0.1226704737
0.7774997352 0.8750250215 0.3724991459
0.7722380865 0.9998537525 0.2540404226
0.7974928844 0.8815662689 0.1226704737
0.7974997352 0.8750250215 0.3724991459
0.7922380865 0.9998537525 0.2540404226
0.8174928844 0.8815662689 0.1226704737
0.8174997352 0.8750250215 0.3724991459
0.8122380865 0.9998537525 0.2540404226
0.8374928844 0.8815662689 0.1226704737
0.8374997352 0.8750250215 0.3724991459
0.8322380865 0.9998537525 0.2540404226
0.8574928844 0.8815662689 0.1226704737
0.8574997352 0.8750250215 0.3724991459
0.8522380865 0.9998537525 0.2540404226
0.8774928844 0.8815662689 0.1226704737
0.8774997352 0.8750250215 0.3724991459
0.8722380865 0.9998537525 0.2540404226
0.8974928844 0.8815662688 0.1226704737
0.8974997352 0.8750250215 0.3724991459
0.8922380865 0.9998537525 0.2540404226
0.9174928844 0.8815662678 0.1226704736
0.9174997352 0.8750250205 0.3724991459
0.9122380865 0.9998537525 0.2540404226
0.9374928846 0.8815662273 0.1226704726
0.9374997352 0.8750249799 0.3724991448
0.9322380878 0.9998537534 0.2540404226
0.9574928898 0.881564474 0.122670419
0.9574997368 0.8750235144 0.3724991065
0.9522381391 0.9998537879 0.2540403868
0.9774931432 0.8814468515 0.1226645384
0.9774997459 0.8750146434 0.3724988813
0.9722401673 0.9998559706 0.2540074942
0.9974979404 0.8790108097 0.1225814089
0.9975002636 0.8738545227 0.3724750236
0.9923097147 0.99991843 0.2530404125
0.5074973156 0.869653038 0.3726696685
0.5075008884 0.8775825339 0.6224180023
0.5274930312 0.8684941006 0.3726730602
0.527499858 0.8751446372 0.6224959624
0.5227485307 0.9998545422 0.4906804622
0.5474928895 0.868485279 0.3726704418
0.5474997371 0.875026819 0.6224990989
0.5427610548 0.9998539253 0.4909562411
0.5674928846 0.8684838157 0.3726704726
0.5674997352 0.8750250631 0.6224991448
0.5627613779 0.9998537579 0.4909579274
0.5874928844 0.8684837752 0.3726704736
0.5874997352 0.8750250226 0.6224991459
0.5827613861 0.9998537526 0.4909579279
0.6074928844 0.8684837742 0.3726704737
0.6074997352 0.8750250215 0.6224991459
0.6027613863 0.9998537525 0.4909579279
0.6274928844 0.8684837742 0.3726704737
0.6274997352 0.8750250215 0.6224991459
0.6227613863 0.9998537525 0.4909579279
0.6474928844 0.8684837742 0.3726704737
0.6474997352 0.8750250215 0.6224991459
0.6427613863 0.9998537525 0.4909579279
0.6674928844 0.8684837742 0.3726704737
0.6674997352 0.8750250215 0.6224991459
0.6627613863 0.9998537525 0.4909579279
0.6874928844 0.8684837742 0.3726704737
0.6874997352 0.8750250215 0.6224991459
0.6827613863 0.9998537525 0.4909579279
0.7074928844 0.8684837742 0.3726704737
0.7074997352 0.8750250215 0.6224991459
0.7027613863 0.9998537525 0.4909579279
0.7274928844 0.8684837742 0.3726704737
0.7274997352 0.8750250215 0.6224991459
0.7227613863 0.9998537525 0.4909579279
0.7474928844 0.8684837742 0.3726704737
0.7474997352 0.8750250215 0.6224991459
0.7427613863 0.9998537525 0.4909579279
0.7674928844 0.8684837742 0.3726704737
0.7674997352 0.8750250215 0.6224991459
0.7627613863 0.9998537525 0.4909579279
0.7874928844 0.8684837742 0.3726704737
0.7874997352 0.8750250215 0.6224991459
0.7827613863 0.9998537525 0.4909579279
0.8074928844 0.8684837742 0.3726704737
0.8074997352 0.8750250215 0.6224991459
0.8027613863 0.9998537525 0.4909579279
0.8274928844 0.8684837742 0.3726704737
0.8274997352 0.8750250215 0.6224991459
0.8227613863 0.9998537525 0.4909579279
0.8474928844 0.8684837742 0.3726704737
0.8474997352 0.8750250215 0.6224991459
0.8427613863 0.9998537525 0.4909579279
0.8674928844 0.8684837742 0.3726704737
0.8674997352 0.8750250215 0.6224991459
0.8627613863 0.9998537525 0.4909579279
0.8874928844 0.8684837742 0.3726704737
0.8874997352 0.8750250215 0.6224991459
0.8827613863 0.9998537525 0.4909579279
0.9074928844 0.8684837743 0.3726704737
0.9074997352 0.8750250217 0.6224991459
0.9027613863 0.9998537525 0.4909579279
0.9274928845 0.8684837808 0.3726704735
0.9274997352 0.8750250281 0.6224991458
0.9227613861 0.9998537526 0.4909579279
0.9474928853 0.8684840381 0.3726704666
0.9474997355 0.8750252816 0.6224991391
0.9427613779 0.999853758 0.4909579282
0.9674929216 0.8684984509 0.3726698646
0.9674997416 0.8750311204 0.6224989868
0.9627610549 0.9998540174 0.490959759
0.9874943321 0.8691691889 0.3726385842
0.9874998202 0.8751167804 0.6224969734
0.9827485454 0.9998693606 0.4912469174
0.5174937838 0.8814747158 0.6226834286
0.5175003686 0.8743386828 0.8724795452
0.5123097549 0.9998655141 0.7550585827
0.5374929126 0.8815601826 0.6226705394
0.5374997505 0.8750103204 0.8724987607
0.5322401692 0.9998541853 0.7540756695
0.5574928853 0.8815660091 0.622670467
0.5574997355 0.8750247572 0.872499139
0.5522381391 0.9998537859 0.7540404646
0.5774928845 0.8815662623 0.6226704735
0.5774997352 0.8750250149 0.8724991458
0.5722380878 0.9998537534 0.7540404227
0.5974928844 0.8815662687 0.6226704736
0.5974997352 0.8750250213 0.8724991459
0.5922380865 0.9998537525 0.7540404226
0.6174928844 0.8815662688 0.6226704737
0.6174997352 0.8750250215 0.8724991459
0.6122380865 0.9998537525 0.7540404226
0.6374928844 0.8815662689 0.6226704737
0.6374997352 0.8750250215 0.8724991459
0.6322380865 0.9998537525 0.7540404226
0.6574928844 0.8815662689 0.6226704737
0.6574997352 0.8750250215 0.8724991459
0.6522380865 0.9998537525 0.7540404226
0.6774928844 0.8815662689 0.6226704737
0.6774997352 0.8750250215 0.8724991459
0.6722380865 0.9998537525 0.7540404226
0.6974928844 0.8815662689 0.6226704737
0.6974997352 0.8750250215 0.8724991459
0.6922380865 0.9998537525 0.7540404226
0.7174928844 0.8815662689 0.6226704737
0.7174997352 0.8750250215 0.8724991459
0.7122380865 0.9998537525 0.7540404226
0.7374928844 0.8815662689 0.6226704737
0.7374997352 0.8750250215 0.8724991459
0.7322380865 0.9998537525 0.7540404226
0.7574928844 0.8815662689 0.6226704737
0.7574997352 0.8750250215 0.8724991459
0.7522380865 0.9998537525 0.7540404226
0.7774928844 0.8815662689 0.6226704737
0.7774997352 0.8750250215 0.8724991459
0.7722380865 0.9998537525 0.7540404226
0.7974928844 0.8815662689 0.6226704737
0.7974997352 0.8750250215 0.8724991459
0.7922380865 0.9998537525 0.7540404226
0.8174928844 0.8815662689 0.6226704737
0.8174997352 0.8750250215 0.8724991459
0.8122380865 0.9998537525 0.7540404226
0.8374928844 0.8815662689 0.6226704737
0.8374997352 0.8750250215 0.8724991459
0.8322380865 0.9998537525 0.7540404226
0.8574928844 0.8815662689 0.6226704737
0.8574997352 0.8750250215 0.8724991459
0.8522380865 0.9998537525 0.7540404226
0.8774928844 0.8815662689 0.6226704737
0.8774997352 0.8750250215 0.8724991459
0.8722380865 0.9998537525 0.7540404226
0.8974928844 0.8815662688 0.6226704737
0.8974997352 0.8750250215 0.8724991459
0.8922380865 0.9998537525 0.7540404226
0.9174928844 0.8815662678 0.6226704736
0.9174997352 0.8750250205 0.8724991459
0.9122380865 0.9998537525 0.7540404226
0.9374928846 0.8815662273 0.6226704726
0.9374997352 0.8750249799 0.8724991448
0.9322380878 0.9998537534 0.7540404227
0.9574928898 0.881564474 0.622670419
0.9574997368 0.8750235144 0.8724991065
0.9522381391 0.9998537879 0.7540403868
0.9774931432 0.8814468515 0.6226645384
0.9774997459 0.8750146434 0.8724988813
0.9722401673 0.9998559706 0.7540074942
0.9974979404 0.8790108097 0.6225814089
0.9975002636 0.8738545227 0.8724750236
0.9923097147 0.99991843 0.7530404125
0.5074973156 0.869653038 0.8726696685
0.5274930312 0.8684941006 0.8726730602
0.5227485307 0.9998545422 0.9906804622
0.5474928895 0.868485279 0.8726704418
0.5427610548 0.9998539253 0.9909562411
0.5674928846 0.8684838157 0.8726704726
0.5627613779 0.9998537579 0.9909579274
0.5874928844 0.8684837752 0.8726704736
0.5827613861 0.9998537526 0.9909579279
0.6074928844 0.8684837742 0.8726704737
0.6027613863 0.9998537525 0.9909579279
0.6274928844 0.8684837742 0.8726704737
0.6227613863 0.9998537525 0.9909579279
0.6474928844 0.8684837742 0.8726704737
0.6427613863 0.9998537525 0.9909579279
0.6674928844 0.8684837742 0.8726704737
0.6627613863 0.9998537525 0.9909579279
0.6874928844 0.8684837742 0.8726704737
0.6827613863 0.9998537525 0.9909579279
0.7074928844 0.8684837742 0.8726704737
0.7027613863 0.9998537525 0.9909579279
0.7274928844 0.8684837742 0.8726704737
0.7227613863 0.9998537525 0.9909579279
0.7474928844 0.8684837742 0.8726704737
0.7427613863 0.9998537525 0.9909579279
0.7674928844 0.8684837742 0.8726704737
0.7627613863 0.9998537525 0.9909579279
0.7874928844 0.8684837742 0.8726704737
0.7827613863 0.9998537525 0.9909579279
0.8074928844 0.8684837742 0.8726704737
0.8027613863 0.9998537525 0.9909579279
0.8274928844 0.8684837742 0.8726704737
0.8227613863 0.9998537525 0.9909579279
0.8474928844 0.8684837742 0.8726704737
0.8427613863 0.9998537525 0.9909579279
0.8674928844 0.8684837742 0.8726704737
0.8627613863 0.9998537525 0.9909579279
0.8874928844 0.8684837742 0.8726704737
0.8827613863 0.9998537525 0.9909579279
0.9074928844 0.8684837743 0.8726704737
0.9027613863 0.9998537525 0.9909579279
0.9274928845 0.8684837808 0.8726704735
0.9227613861 0.9998537526 0.9909579279
0.9474928853 0.8684840381 0.8726704666
0.9427613779 0.999853758 0.9909579282
0.9674929216 0.8684984509 0.8726698646
0.9627610549 0.9998540174 0.990959759
0.9874943321 0.8691691889 0.8726385842
0.9827485454 0.9998693606 0.9912469174
